\ Model transistor_placement
\ LP format - for model browsing. Use MPS format to capture full model detail.
\ Signature: 0xee2242e7c5ba8f1f
Minimize
  3 t_c_0 + 12 ut_c_0 + 3 t_c_1 + 12 ut_c_1 + 3 t_c_2 + 12 ut_c_2 + 3 t_c_3
   + 12 ut_c_3 + 3 t_c_4 + 12 ut_c_4 + t_eol_c_r[0,3] + t_eol_c_r[0,2]
   + t_eol_c_r[0,1] + t_eol_c_r[0,0] + t_eol_c_r[1,3] + t_eol_c_r[1,2]
   + t_eol_c_r[1,1] + t_eol_c_r[1,0] + t_eol_c_r[2,3] + t_eol_c_r[2,2]
   + t_eol_c_r[2,1] + t_eol_c_r[2,0] + t_eol_c_r[3,3] + t_eol_c_r[3,2]
   + t_eol_c_r[3,1] + t_eol_c_r[3,0] + t_eol_c_r[4,3] + t_eol_c_r[4,2]
   + t_eol_c_r[4,1] + t_eol_c_r[4,0] + 6 ut_eol_c_r[0,7]
   + 6 ut_eol_c_r[0,6] + 6 ut_eol_c_r[0,5] + 6 ut_eol_c_r[0,4]
   + 6 ut_eol_c_r[1,7] + 6 ut_eol_c_r[1,6] + 6 ut_eol_c_r[1,5]
   + 6 ut_eol_c_r[1,4] + 6 ut_eol_c_r[2,7] + 6 ut_eol_c_r[2,6]
   + 6 ut_eol_c_r[2,5] + 6 ut_eol_c_r[2,4] + 6 ut_eol_c_r[3,7]
   + 6 ut_eol_c_r[3,6] + 6 ut_eol_c_r[3,5] + 6 ut_eol_c_r[3,4]
   + 6 ut_eol_c_r[4,7] + 6 ut_eol_c_r[4,6] + 6 ut_eol_c_r[4,5]
   + 6 ut_eol_c_r[4,4] + 60 v_A2_v[0] + 60 v_A2_v[1] + 100 v_A2_v[2]
   + 60 v_net16_v[0] + 60 v_net16_v[1] + 100 v_net16_v[2] + 60 v_A1_v[0]
   + 60 v_A1_v[1] + 100 v_A1_v[2] + 60 v_ZN_v[0] + 60 v_ZN_v[1]
   + 100 v_ZN_v[2] + 0 l_e_1 - p_e_r_1 + 0 l_e_3 - p_e_r_3 - z_1_A1_A2_3_0
   - z_1_A1_A2_0_3 - z_1_A1_ZN_3_0 - z_1_A1_ZN_0_3 - z_1_A2_A1_3_0
   - z_1_A2_A1_0_3 - z_1_A2_ZN_3_0 - z_1_A2_ZN_0_3 - z_1_ZN_A1_3_0
   - z_1_ZN_A1_0_3 - z_1_ZN_A2_3_0 - z_1_ZN_A2_0_3 + 100 o_m_p_7
   + 100 o_m_p_6 + 100 o_m_p_5 + 100 o_m_p_4
Subject To
 top_assign_orient_0_MM1: c_top_MM1_c1_o0 + c_top_MM1_c3_o0 = 1
 top_assign_orient_1_MM1: c_top_MM1_c1_o1 + c_top_MM1_c3_o1 = 0
 pmos_net_G_MM1_col_1_o: c_top_MM1_c1_o0 + c_top_MM1_c1_o1 - pmos_net_A2_c1
   <= 0
 pmos_net_S_MM1_col_0_o0: c_top_MM1_c1_o0 - pmos_net_VDD_c0 <= 0
 pmos_net_D_MM1_col_2_o0: c_top_MM1_c1_o0 - pmos_net_ZN_c2 <= 0
 pmos_net_D_MM1_col_0_o1: c_top_MM1_c1_o1 - pmos_net_ZN_c0 <= 0
 pmos_net_S_MM1_col_2_o1: c_top_MM1_c1_o1 - pmos_net_VDD_c2 <= 0
 pmos_net_G_MM1_col_3_o: c_top_MM1_c3_o0 + c_top_MM1_c3_o1 - pmos_net_A2_c3
   <= 0
 pmos_net_S_MM1_col_2_o0: c_top_MM1_c3_o0 - pmos_net_VDD_c2 <= 0
 pmos_net_D_MM1_col_4_o0: c_top_MM1_c3_o0 - pmos_net_ZN_c4 <= 0
 pmos_net_D_MM1_col_2_o1: c_top_MM1_c3_o1 - pmos_net_ZN_c2 <= 0
 pmos_net_S_MM1_col_4_o1: c_top_MM1_c3_o1 - pmos_net_VDD_c4 <= 0
 top_assign_MM0: c_top_MM0_c1_o0 + c_top_MM0_c1_o1 + c_top_MM0_c3_o0
   + c_top_MM0_c3_o1 = 1
 pmos_net_G_MM0_col_1_o: c_top_MM0_c1_o0 + c_top_MM0_c1_o1 - pmos_net_A1_c1
   <= 0
 pmos_net_S_MM0_col_0_o0: c_top_MM0_c1_o0 - pmos_net_VDD_c0 <= 0
 pmos_net_D_MM0_col_2_o0: c_top_MM0_c1_o0 - pmos_net_ZN_c2 <= 0
 pmos_net_D_MM0_col_0_o1: c_top_MM0_c1_o1 - pmos_net_ZN_c0 <= 0
 pmos_net_S_MM0_col_2_o1: c_top_MM0_c1_o1 - pmos_net_VDD_c2 <= 0
 pmos_net_G_MM0_col_3_o: c_top_MM0_c3_o0 + c_top_MM0_c3_o1 - pmos_net_A1_c3
   <= 0
 pmos_net_S_MM0_col_2_o0: c_top_MM0_c3_o0 - pmos_net_VDD_c2 <= 0
 pmos_net_D_MM0_col_4_o0: c_top_MM0_c3_o0 - pmos_net_ZN_c4 <= 0
 pmos_net_D_MM0_col_2_o1: c_top_MM0_c3_o1 - pmos_net_ZN_c2 <= 0
 pmos_net_S_MM0_col_4_o1: c_top_MM0_c3_o1 - pmos_net_VDD_c4 <= 0
 bot_assign_MM3: c_bot_MM3_c1_o0 + c_bot_MM3_c1_o1 + c_bot_MM3_c3_o0
   + c_bot_MM3_c3_o1 = 1
 nmos_net_G_MM3_col_1_o: c_bot_MM3_c1_o0 + c_bot_MM3_c1_o1 - nmos_net_A2_c1
   <= 0
 nmos_net_S_MM3_col_0_o0: c_bot_MM3_c1_o0 - nmos_net_VSS_c0 <= 0
 nmos_net_D_MM3_col_2_o0: c_bot_MM3_c1_o0 - nmos_net_net16_c2 <= 0
 nmos_net_D_MM3_col_0_o1: c_bot_MM3_c1_o1 - nmos_net_net16_c0 <= 0
 nmos_net_S_MM3_col_2_o1: c_bot_MM3_c1_o1 - nmos_net_VSS_c2 <= 0
 nmos_net_G_MM3_col_3_o: c_bot_MM3_c3_o0 + c_bot_MM3_c3_o1 - nmos_net_A2_c3
   <= 0
 nmos_net_S_MM3_col_2_o0: c_bot_MM3_c3_o0 - nmos_net_VSS_c2 <= 0
 nmos_net_D_MM3_col_4_o0: c_bot_MM3_c3_o0 - nmos_net_net16_c4 <= 0
 nmos_net_D_MM3_col_2_o1: c_bot_MM3_c3_o1 - nmos_net_net16_c2 <= 0
 nmos_net_S_MM3_col_4_o1: c_bot_MM3_c3_o1 - nmos_net_VSS_c4 <= 0
 bot_assign_MM2: c_bot_MM2_c1_o0 + c_bot_MM2_c1_o1 + c_bot_MM2_c3_o0
   + c_bot_MM2_c3_o1 = 1
 nmos_net_G_MM2_col_1_o: c_bot_MM2_c1_o0 + c_bot_MM2_c1_o1 - nmos_net_A1_c1
   <= 0
 nmos_net_S_MM2_col_0_o0: c_bot_MM2_c1_o0 - nmos_net_net16_c0 <= 0
 nmos_net_D_MM2_col_2_o0: c_bot_MM2_c1_o0 - nmos_net_ZN_c2 <= 0
 nmos_net_D_MM2_col_0_o1: c_bot_MM2_c1_o1 - nmos_net_ZN_c0 <= 0
 nmos_net_S_MM2_col_2_o1: c_bot_MM2_c1_o1 - nmos_net_net16_c2 <= 0
 nmos_net_G_MM2_col_3_o: c_bot_MM2_c3_o0 + c_bot_MM2_c3_o1 - nmos_net_A1_c3
   <= 0
 nmos_net_S_MM2_col_2_o0: c_bot_MM2_c3_o0 - nmos_net_net16_c2 <= 0
 nmos_net_D_MM2_col_4_o0: c_bot_MM2_c3_o0 - nmos_net_ZN_c4 <= 0
 nmos_net_D_MM2_col_2_o1: c_bot_MM2_c3_o1 - nmos_net_ZN_c2 <= 0
 nmos_net_S_MM2_col_4_o1: c_bot_MM2_c3_o1 - nmos_net_net16_c4 <= 0
 pmos_one_per_col_1: c_top_MM1_c1_o0 + c_top_MM1_c1_o1 + c_top_MM0_c1_o0
   + c_top_MM0_c1_o1 <= 1
 dummy_assign_pmos_col_1: c_top_MM1_c1_o0 + c_top_MM1_c1_o1
   + c_top_MM0_c1_o0 + c_top_MM0_c1_o1 + pmos_net_dummy_c1 = 1
 avoid_different_nets_A2_VDD_col_1: pmos_net_A2_c0 + pmos_net_dummy_c1
   + pmos_net_VDD_c2 - nmos_net_dummy_c1 <= 2
 avoid_different_nets_A2_A1_col_1: pmos_net_A2_c0 + pmos_net_dummy_c1
   + pmos_net_A1_c2 - nmos_net_dummy_c1 <= 2
 avoid_different_nets_A2_ZN_col_1: pmos_net_A2_c0 + pmos_net_dummy_c1
   + pmos_net_ZN_c2 - nmos_net_dummy_c1 <= 2
 avoid_different_nets_VDD_A2_col_1: pmos_net_VDD_c0 + pmos_net_dummy_c1
   + pmos_net_A2_c2 - nmos_net_dummy_c1 <= 2
 avoid_different_nets_VDD_A1_col_1: pmos_net_VDD_c0 + pmos_net_dummy_c1
   + pmos_net_A1_c2 - nmos_net_dummy_c1 <= 2
 avoid_different_nets_VDD_ZN_col_1: pmos_net_VDD_c0 + pmos_net_dummy_c1
   + pmos_net_ZN_c2 - nmos_net_dummy_c1 <= 2
 avoid_different_nets_A1_A2_col_1: pmos_net_A1_c0 + pmos_net_dummy_c1
   + pmos_net_A2_c2 - nmos_net_dummy_c1 <= 2
 avoid_different_nets_A1_VDD_col_1: pmos_net_A1_c0 + pmos_net_dummy_c1
   + pmos_net_VDD_c2 - nmos_net_dummy_c1 <= 2
 avoid_different_nets_A1_ZN_col_1: pmos_net_A1_c0 + pmos_net_dummy_c1
   + pmos_net_ZN_c2 - nmos_net_dummy_c1 <= 2
 avoid_different_nets_ZN_A2_col_1: pmos_net_ZN_c0 + pmos_net_dummy_c1
   + pmos_net_A2_c2 - nmos_net_dummy_c1 <= 2
 avoid_different_nets_ZN_VDD_col_1: pmos_net_ZN_c0 + pmos_net_dummy_c1
   + pmos_net_VDD_c2 - nmos_net_dummy_c1 <= 2
 avoid_different_nets_ZN_A1_col_1: pmos_net_ZN_c0 + pmos_net_dummy_c1
   + pmos_net_A1_c2 - nmos_net_dummy_c1 <= 2
 R59: pmos_net_dummy_c0 + pmos_net_dummy_c1 <= 1
 R60: pmos_net_dummy_c1 + pmos_net_dummy_c2 <= 1
 nmos_one_per_col_1: c_bot_MM3_c1_o0 + c_bot_MM3_c1_o1 + c_bot_MM2_c1_o0
   + c_bot_MM2_c1_o1 <= 1
 dummy_assign_nmos_col_1: c_bot_MM3_c1_o0 + c_bot_MM3_c1_o1
   + c_bot_MM2_c1_o0 + c_bot_MM2_c1_o1 + nmos_net_dummy_c1 = 1
 avoid_different_nets_A2_VSS_col_1: - pmos_net_dummy_c1 + nmos_net_A2_c0
   + nmos_net_dummy_c1 + nmos_net_VSS_c2 <= 2
 avoid_different_nets_A2_net16_col_1: - pmos_net_dummy_c1 + nmos_net_A2_c0
   + nmos_net_dummy_c1 + nmos_net_net16_c2 <= 2
 avoid_different_nets_A2_A1_col_1: - pmos_net_dummy_c1 + nmos_net_A2_c0
   + nmos_net_dummy_c1 + nmos_net_A1_c2 <= 2
 avoid_different_nets_A2_ZN_col_1: - pmos_net_dummy_c1 + nmos_net_A2_c0
   + nmos_net_dummy_c1 + nmos_net_ZN_c2 <= 2
 avoid_different_nets_VSS_A2_col_1: - pmos_net_dummy_c1 + nmos_net_VSS_c0
   + nmos_net_dummy_c1 + nmos_net_A2_c2 <= 2
 avoid_different_nets_VSS_net16_col_1: - pmos_net_dummy_c1
   + nmos_net_VSS_c0 + nmos_net_dummy_c1 + nmos_net_net16_c2 <= 2
 avoid_different_nets_VSS_A1_col_1: - pmos_net_dummy_c1 + nmos_net_VSS_c0
   + nmos_net_dummy_c1 + nmos_net_A1_c2 <= 2
 avoid_different_nets_VSS_ZN_col_1: - pmos_net_dummy_c1 + nmos_net_VSS_c0
   + nmos_net_dummy_c1 + nmos_net_ZN_c2 <= 2
 avoid_different_nets_net16_A2_col_1: - pmos_net_dummy_c1
   + nmos_net_net16_c0 + nmos_net_dummy_c1 + nmos_net_A2_c2 <= 2
 avoid_different_nets_net16_VSS_col_1: - pmos_net_dummy_c1
   + nmos_net_net16_c0 + nmos_net_dummy_c1 + nmos_net_VSS_c2 <= 2
 avoid_different_nets_net16_A1_col_1: - pmos_net_dummy_c1
   + nmos_net_net16_c0 + nmos_net_dummy_c1 + nmos_net_A1_c2 <= 2
 avoid_different_nets_net16_ZN_col_1: - pmos_net_dummy_c1
   + nmos_net_net16_c0 + nmos_net_dummy_c1 + nmos_net_ZN_c2 <= 2
 avoid_different_nets_A1_A2_col_1: - pmos_net_dummy_c1 + nmos_net_A1_c0
   + nmos_net_dummy_c1 + nmos_net_A2_c2 <= 2
 avoid_different_nets_A1_VSS_col_1: - pmos_net_dummy_c1 + nmos_net_A1_c0
   + nmos_net_dummy_c1 + nmos_net_VSS_c2 <= 2
 avoid_different_nets_A1_net16_col_1: - pmos_net_dummy_c1 + nmos_net_A1_c0
   + nmos_net_dummy_c1 + nmos_net_net16_c2 <= 2
 avoid_different_nets_A1_ZN_col_1: - pmos_net_dummy_c1 + nmos_net_A1_c0
   + nmos_net_dummy_c1 + nmos_net_ZN_c2 <= 2
 avoid_different_nets_ZN_A2_col_1: - pmos_net_dummy_c1 + nmos_net_ZN_c0
   + nmos_net_dummy_c1 + nmos_net_A2_c2 <= 2
 avoid_different_nets_ZN_VSS_col_1: - pmos_net_dummy_c1 + nmos_net_ZN_c0
   + nmos_net_dummy_c1 + nmos_net_VSS_c2 <= 2
 avoid_different_nets_ZN_net16_col_1: - pmos_net_dummy_c1 + nmos_net_ZN_c0
   + nmos_net_dummy_c1 + nmos_net_net16_c2 <= 2
 avoid_different_nets_ZN_A1_col_1: - pmos_net_dummy_c1 + nmos_net_ZN_c0
   + nmos_net_dummy_c1 + nmos_net_A1_c2 <= 2
 R83: nmos_net_dummy_c0 + nmos_net_dummy_c1 <= 1
 R84: nmos_net_dummy_c1 + nmos_net_dummy_c2 <= 1
 pmos_one_per_col_3: c_top_MM1_c3_o0 + c_top_MM1_c3_o1 + c_top_MM0_c3_o0
   + c_top_MM0_c3_o1 <= 1
 dummy_assign_pmos_col_3: c_top_MM1_c3_o0 + c_top_MM1_c3_o1
   + c_top_MM0_c3_o0 + c_top_MM0_c3_o1 + pmos_net_dummy_c3 = 1
 avoid_different_nets_A2_VDD_col_3: pmos_net_A2_c2 + pmos_net_dummy_c3
   + pmos_net_VDD_c4 - nmos_net_dummy_c3 <= 2
 avoid_different_nets_A2_A1_col_3: pmos_net_A2_c2 + pmos_net_dummy_c3
   + pmos_net_A1_c4 - nmos_net_dummy_c3 <= 2
 avoid_different_nets_A2_ZN_col_3: pmos_net_A2_c2 + pmos_net_dummy_c3
   + pmos_net_ZN_c4 - nmos_net_dummy_c3 <= 2
 avoid_different_nets_VDD_A2_col_3: pmos_net_VDD_c2 + pmos_net_dummy_c3
   + pmos_net_A2_c4 - nmos_net_dummy_c3 <= 2
 avoid_different_nets_VDD_A1_col_3: pmos_net_VDD_c2 + pmos_net_dummy_c3
   + pmos_net_A1_c4 - nmos_net_dummy_c3 <= 2
 avoid_different_nets_VDD_ZN_col_3: pmos_net_VDD_c2 + pmos_net_dummy_c3
   + pmos_net_ZN_c4 - nmos_net_dummy_c3 <= 2
 avoid_different_nets_A1_A2_col_3: pmos_net_A1_c2 + pmos_net_dummy_c3
   + pmos_net_A2_c4 - nmos_net_dummy_c3 <= 2
 avoid_different_nets_A1_VDD_col_3: pmos_net_A1_c2 + pmos_net_dummy_c3
   + pmos_net_VDD_c4 - nmos_net_dummy_c3 <= 2
 avoid_different_nets_A1_ZN_col_3: pmos_net_A1_c2 + pmos_net_dummy_c3
   + pmos_net_ZN_c4 - nmos_net_dummy_c3 <= 2
 avoid_different_nets_ZN_A2_col_3: pmos_net_ZN_c2 + pmos_net_dummy_c3
   + pmos_net_A2_c4 - nmos_net_dummy_c3 <= 2
 avoid_different_nets_ZN_VDD_col_3: pmos_net_ZN_c2 + pmos_net_dummy_c3
   + pmos_net_VDD_c4 - nmos_net_dummy_c3 <= 2
 avoid_different_nets_ZN_A1_col_3: pmos_net_ZN_c2 + pmos_net_dummy_c3
   + pmos_net_A1_c4 - nmos_net_dummy_c3 <= 2
 R99: pmos_net_dummy_c2 + pmos_net_dummy_c3 <= 1
 R100: pmos_net_dummy_c3 + pmos_net_dummy_c4 <= 1
 nmos_one_per_col_3: c_bot_MM3_c3_o0 + c_bot_MM3_c3_o1 + c_bot_MM2_c3_o0
   + c_bot_MM2_c3_o1 <= 1
 dummy_assign_nmos_col_3: c_bot_MM3_c3_o0 + c_bot_MM3_c3_o1
   + c_bot_MM2_c3_o0 + c_bot_MM2_c3_o1 + nmos_net_dummy_c3 = 1
 avoid_different_nets_A2_VSS_col_3: - pmos_net_dummy_c3 + nmos_net_A2_c2
   + nmos_net_dummy_c3 + nmos_net_VSS_c4 <= 2
 avoid_different_nets_A2_net16_col_3: - pmos_net_dummy_c3 + nmos_net_A2_c2
   + nmos_net_dummy_c3 + nmos_net_net16_c4 <= 2
 avoid_different_nets_A2_A1_col_3: - pmos_net_dummy_c3 + nmos_net_A2_c2
   + nmos_net_dummy_c3 + nmos_net_A1_c4 <= 2
 avoid_different_nets_A2_ZN_col_3: - pmos_net_dummy_c3 + nmos_net_A2_c2
   + nmos_net_dummy_c3 + nmos_net_ZN_c4 <= 2
 avoid_different_nets_VSS_A2_col_3: - pmos_net_dummy_c3 + nmos_net_VSS_c2
   + nmos_net_dummy_c3 + nmos_net_A2_c4 <= 2
 avoid_different_nets_VSS_net16_col_3: - pmos_net_dummy_c3
   + nmos_net_VSS_c2 + nmos_net_dummy_c3 + nmos_net_net16_c4 <= 2
 avoid_different_nets_VSS_A1_col_3: - pmos_net_dummy_c3 + nmos_net_VSS_c2
   + nmos_net_dummy_c3 + nmos_net_A1_c4 <= 2
 avoid_different_nets_VSS_ZN_col_3: - pmos_net_dummy_c3 + nmos_net_VSS_c2
   + nmos_net_dummy_c3 + nmos_net_ZN_c4 <= 2
 avoid_different_nets_net16_A2_col_3: - pmos_net_dummy_c3
   + nmos_net_net16_c2 + nmos_net_dummy_c3 + nmos_net_A2_c4 <= 2
 avoid_different_nets_net16_VSS_col_3: - pmos_net_dummy_c3
   + nmos_net_net16_c2 + nmos_net_dummy_c3 + nmos_net_VSS_c4 <= 2
 avoid_different_nets_net16_A1_col_3: - pmos_net_dummy_c3
   + nmos_net_net16_c2 + nmos_net_dummy_c3 + nmos_net_A1_c4 <= 2
 avoid_different_nets_net16_ZN_col_3: - pmos_net_dummy_c3
   + nmos_net_net16_c2 + nmos_net_dummy_c3 + nmos_net_ZN_c4 <= 2
 avoid_different_nets_A1_A2_col_3: - pmos_net_dummy_c3 + nmos_net_A1_c2
   + nmos_net_dummy_c3 + nmos_net_A2_c4 <= 2
 avoid_different_nets_A1_VSS_col_3: - pmos_net_dummy_c3 + nmos_net_A1_c2
   + nmos_net_dummy_c3 + nmos_net_VSS_c4 <= 2
 avoid_different_nets_A1_net16_col_3: - pmos_net_dummy_c3 + nmos_net_A1_c2
   + nmos_net_dummy_c3 + nmos_net_net16_c4 <= 2
 avoid_different_nets_A1_ZN_col_3: - pmos_net_dummy_c3 + nmos_net_A1_c2
   + nmos_net_dummy_c3 + nmos_net_ZN_c4 <= 2
 avoid_different_nets_ZN_A2_col_3: - pmos_net_dummy_c3 + nmos_net_ZN_c2
   + nmos_net_dummy_c3 + nmos_net_A2_c4 <= 2
 avoid_different_nets_ZN_VSS_col_3: - pmos_net_dummy_c3 + nmos_net_ZN_c2
   + nmos_net_dummy_c3 + nmos_net_VSS_c4 <= 2
 avoid_different_nets_ZN_net16_col_3: - pmos_net_dummy_c3 + nmos_net_ZN_c2
   + nmos_net_dummy_c3 + nmos_net_net16_c4 <= 2
 avoid_different_nets_ZN_A1_col_3: - pmos_net_dummy_c3 + nmos_net_ZN_c2
   + nmos_net_dummy_c3 + nmos_net_A1_c4 <= 2
 R123: nmos_net_dummy_c2 + nmos_net_dummy_c3 <= 1
 R124: nmos_net_dummy_c3 + nmos_net_dummy_c4 <= 1
 pmos_one_net_per_col_0: pmos_net_A2_c0 + pmos_net_dummy_c0
   + pmos_net_VDD_c0 + pmos_net_A1_c0 + pmos_net_ZN_c0 = 1
 pmos_one_net_per_col_0: nmos_net_A2_c0 + nmos_net_VSS_c0
   + nmos_net_net16_c0 + nmos_net_dummy_c0 + nmos_net_A1_c0
   + nmos_net_ZN_c0 = 1
 pmos_one_net_per_col_1: pmos_net_A2_c1 + pmos_net_dummy_c1
   + pmos_net_VDD_c1 + pmos_net_A1_c1 + pmos_net_ZN_c1 = 1
 pmos_one_net_per_col_1: nmos_net_A2_c1 + nmos_net_VSS_c1
   + nmos_net_net16_c1 + nmos_net_dummy_c1 + nmos_net_A1_c1
   + nmos_net_ZN_c1 = 1
 pmos_one_net_per_col_2: pmos_net_A2_c2 + pmos_net_dummy_c2
   + pmos_net_VDD_c2 + pmos_net_A1_c2 + pmos_net_ZN_c2 = 1
 pmos_one_net_per_col_2: nmos_net_A2_c2 + nmos_net_VSS_c2
   + nmos_net_net16_c2 + nmos_net_dummy_c2 + nmos_net_A1_c2
   + nmos_net_ZN_c2 = 1
 pmos_one_net_per_col_3: pmos_net_A2_c3 + pmos_net_dummy_c3
   + pmos_net_VDD_c3 + pmos_net_A1_c3 + pmos_net_ZN_c3 = 1
 pmos_one_net_per_col_3: nmos_net_A2_c3 + nmos_net_VSS_c3
   + nmos_net_net16_c3 + nmos_net_dummy_c3 + nmos_net_A1_c3
   + nmos_net_ZN_c3 = 1
 pmos_one_net_per_col_4: pmos_net_A2_c4 + pmos_net_dummy_c4
   + pmos_net_VDD_c4 + pmos_net_A1_c4 + pmos_net_ZN_c4 = 1
 pmos_one_net_per_col_4: nmos_net_A2_c4 + nmos_net_VSS_c4
   + nmos_net_net16_c4 + nmos_net_dummy_c4 + nmos_net_A1_c4
   + nmos_net_ZN_c4 = 1
 dummy_or_misalign_ge_dummy_1: - dummayallign_c1 + dummy_or_misalign_c1
   >= 0
 dummy_or_misalign_ge_mis_1: - misalign_c1 + dummy_or_misalign_c1 >= 0
 dummy_or_misalign_le_sum_1: - misalign_c1 - dummayallign_c1
   + dummy_or_misalign_c1 <= 0
 temp_misalign_c_rule1_A2_c1: - pmos_net_A2_c1 + nmos_net_A2_c1
   + temp_misalign_net_c1 >= 0
 temp_misalign_c_rule2_A2_c1: pmos_net_A2_c1 - nmos_net_A2_c1
   + temp_misalign_net_c1 >= 0
 temp_misalign_c_rule3_A2_c1: - pmos_net_A2_c1 - nmos_net_A2_c1
   + temp_misalign_net_c1 <= 0
 temp_misalign_c_rule4_A2_c1: pmos_net_A2_c1 + nmos_net_A2_c1
   + temp_misalign_net_c1 <= 2
 temp_misalign_c_ge_temp_misalign_net_A2_c1: temp_misalign_c1
   - temp_misalign_net_c1 >= 0
 temp_misalign_c_rule1_dummy_c1: - pmos_net_dummy_c1 + nmos_net_dummy_c1
   + temp_misalign_net_c1 >= 0
 temp_misalign_c_rule2_dummy_c1: pmos_net_dummy_c1 - nmos_net_dummy_c1
   + temp_misalign_net_c1 >= 0
 temp_misalign_c_rule3_dummy_c1: - pmos_net_dummy_c1 - nmos_net_dummy_c1
   + temp_misalign_net_c1 <= 0
 temp_misalign_c_rule4_dummy_c1: pmos_net_dummy_c1 + nmos_net_dummy_c1
   + temp_misalign_net_c1 <= 2
 temp_misalign_c_ge_temp_misalign_net_dummy_c1: temp_misalign_c1
   - temp_misalign_net_c1 >= 0
 temp_misalign_c_rule1_A1_c1: - pmos_net_A1_c1 + nmos_net_A1_c1
   + temp_misalign_net_c1 >= 0
 temp_misalign_c_rule2_A1_c1: pmos_net_A1_c1 - nmos_net_A1_c1
   + temp_misalign_net_c1 >= 0
 temp_misalign_c_rule3_A1_c1: - pmos_net_A1_c1 - nmos_net_A1_c1
   + temp_misalign_net_c1 <= 0
 temp_misalign_c_rule4_A1_c1: pmos_net_A1_c1 + nmos_net_A1_c1
   + temp_misalign_net_c1 <= 2
 temp_misalign_c_ge_temp_misalign_net_A1_c1: temp_misalign_c1
   - temp_misalign_net_c1 >= 0
 misalign_c_le_sum_mis_net_c1: misalign_c1 <= 0
 temp_misalign_c_le_sum_mis_net_c1: temp_misalign_c1 - temp_misalign_net_c1
   - temp_misalign_net_c1 - temp_misalign_net_c1 <= 0
 dummyalign_c_rule1_c1: - pmos_net_dummy_c1 + dummayallign_c1 <= 0
 dummyalign_c_rule2_c1: - nmos_net_dummy_c1 + dummayallign_c1 <= 0
 dummyalign_c_rule3_c1: - pmos_net_dummy_c1 - nmos_net_dummy_c1
   + dummayallign_c1 >= -1
 dummy_or_misalign_ge_dummy_3: - dummayallign_c3 + dummy_or_misalign_c3
   >= 0
 dummy_or_misalign_ge_mis_3: - misalign_c3 + dummy_or_misalign_c3 >= 0
 dummy_or_misalign_le_sum_3: - misalign_c3 - dummayallign_c3
   + dummy_or_misalign_c3 <= 0
 temp_misalign_c_rule1_A2_c3: - pmos_net_A2_c3 + nmos_net_A2_c3
   + temp_misalign_net_c3 >= 0
 temp_misalign_c_rule2_A2_c3: pmos_net_A2_c3 - nmos_net_A2_c3
   + temp_misalign_net_c3 >= 0
 temp_misalign_c_rule3_A2_c3: - pmos_net_A2_c3 - nmos_net_A2_c3
   + temp_misalign_net_c3 <= 0
 temp_misalign_c_rule4_A2_c3: pmos_net_A2_c3 + nmos_net_A2_c3
   + temp_misalign_net_c3 <= 2
 temp_misalign_c_ge_temp_misalign_net_A2_c3: temp_misalign_c3
   - temp_misalign_net_c3 >= 0
 temp_misalign_c_rule1_dummy_c3: - pmos_net_dummy_c3 + nmos_net_dummy_c3
   + temp_misalign_net_c3 >= 0
 temp_misalign_c_rule2_dummy_c3: pmos_net_dummy_c3 - nmos_net_dummy_c3
   + temp_misalign_net_c3 >= 0
 temp_misalign_c_rule3_dummy_c3: - pmos_net_dummy_c3 - nmos_net_dummy_c3
   + temp_misalign_net_c3 <= 0
 temp_misalign_c_rule4_dummy_c3: pmos_net_dummy_c3 + nmos_net_dummy_c3
   + temp_misalign_net_c3 <= 2
 temp_misalign_c_ge_temp_misalign_net_dummy_c3: temp_misalign_c3
   - temp_misalign_net_c3 >= 0
 temp_misalign_c_rule1_A1_c3: - pmos_net_A1_c3 + nmos_net_A1_c3
   + temp_misalign_net_c3 >= 0
 temp_misalign_c_rule2_A1_c3: pmos_net_A1_c3 - nmos_net_A1_c3
   + temp_misalign_net_c3 >= 0
 temp_misalign_c_rule3_A1_c3: - pmos_net_A1_c3 - nmos_net_A1_c3
   + temp_misalign_net_c3 <= 0
 temp_misalign_c_rule4_A1_c3: pmos_net_A1_c3 + nmos_net_A1_c3
   + temp_misalign_net_c3 <= 2
 temp_misalign_c_ge_temp_misalign_net_A1_c3: temp_misalign_c3
   - temp_misalign_net_c3 >= 0
 misalign_c_le_sum_mis_net_c3: misalign_c3 <= 0
 temp_misalign_c_le_sum_mis_net_c3: temp_misalign_c3 - temp_misalign_net_c3
   - temp_misalign_net_c3 - temp_misalign_net_c3 <= 0
 dummyalign_c_rule1_c3: - pmos_net_dummy_c3 + dummayallign_c3 <= 0
 dummyalign_c_rule2_c3: - nmos_net_dummy_c3 + dummayallign_c3 <= 0
 dummyalign_c_rule3_c3: - pmos_net_dummy_c3 - nmos_net_dummy_c3
   + dummayallign_c3 >= -1
 misalign_col_maximum: misalign_c1 + misalign_c3 = 0
 temp_misalign_col_maximum: temp_misalign_c1 + temp_misalign_c3 = 0
 consecutive_gate_cut_c1: - 2 misalign_c1 + dummy_or_misalign_c1
   + dummy_or_misalign_c3 >= 0
 a_net_le_pmos_A2_col1_left: - pmos_net_A2_c0 + a_net_A2_col1_left <= 0
 a_net_le_sumother_A2_col1_left: - pmos_net_A2_c2 - pmos_net_A2_c3
   - pmos_net_A2_c4 + a_net_A2_col1_left <= 0
 a_net_ge_sumother_A2_col1_left: - 5 pmos_net_A2_c0 - pmos_net_A2_c2
   - pmos_net_A2_c3 - pmos_net_A2_c4 + 5 a_net_A2_col1_left >= -5
 a_net_le_pmos_A1_col1_left: - pmos_net_A1_c0 + a_net_A1_col1_left <= 0
 a_net_le_sumother_A1_col1_left: - pmos_net_A1_c2 - pmos_net_A1_c3
   - pmos_net_A1_c4 + a_net_A1_col1_left <= 0
 a_net_ge_sumother_A1_col1_left: - 5 pmos_net_A1_c0 - pmos_net_A1_c2
   - pmos_net_A1_c3 - pmos_net_A1_c4 + 5 a_net_A1_col1_left >= -5
 a_net_le_pmos_ZN_col1_left: - pmos_net_ZN_c0 + a_net_ZN_col1_left <= 0
 a_net_le_sumother_ZN_col1_left: - pmos_net_ZN_c2 - pmos_net_ZN_c3
   - pmos_net_ZN_c4 - nmos_net_ZN_c2 - nmos_net_ZN_c3 - nmos_net_ZN_c4
   + a_net_ZN_col1_left <= 0
 a_net_ge_sumother_ZN_col1_left: - 5 pmos_net_ZN_c0 - pmos_net_ZN_c2
   - pmos_net_ZN_c3 - pmos_net_ZN_c4 - nmos_net_ZN_c2 - nmos_net_ZN_c3
   - nmos_net_ZN_c4 + 5 a_net_ZN_col1_left >= -5
 b_net_le_nmos_A2_col1_left: - nmos_net_A2_c0 + b_net_A2_col1_left <= 0
 b_net_ge_sumother_A2_col1_left: - 5 nmos_net_A2_c0 - nmos_net_A2_c2
   - nmos_net_A2_c3 - nmos_net_A2_c4 + 5 b_net_A2_col1_left >= -5
 b_net_le_sumother_A2_col1_left: - nmos_net_A2_c2 - nmos_net_A2_c3
   - nmos_net_A2_c4 + b_net_A2_col1_left <= 0
 b_net_le_nmos_net16_col1_left: - nmos_net_net16_c0 + b_net_net16_col1_left
   <= 0
 b_net_ge_sumother_net16_col1_left: - 5 nmos_net_net16_c0
   - nmos_net_net16_c2 - nmos_net_net16_c3 - nmos_net_net16_c4
   + 5 b_net_net16_col1_left >= -5
 b_net_le_sumother_net16_col1_left: - nmos_net_net16_c2 - nmos_net_net16_c3
   - nmos_net_net16_c4 + b_net_net16_col1_left <= 0
 b_net_le_nmos_A1_col1_left: - nmos_net_A1_c0 + b_net_A1_col1_left <= 0
 b_net_ge_sumother_A1_col1_left: - 5 nmos_net_A1_c0 - nmos_net_A1_c2
   - nmos_net_A1_c3 - nmos_net_A1_c4 + 5 b_net_A1_col1_left >= -5
 b_net_le_sumother_A1_col1_left: - nmos_net_A1_c2 - nmos_net_A1_c3
   - nmos_net_A1_c4 + b_net_A1_col1_left <= 0
 b_net_le_nmos_ZN_col1_left: - nmos_net_ZN_c0 + b_net_ZN_col1_left <= 0
 b_net_already_ZN_col1_left: a_net_ZN_col1_left + b_net_ZN_col1_left <= 1
 b_net_ge_sumother_ZN_col1_left: 5 pmos_net_ZN_c0 - pmos_net_ZN_c2
   - pmos_net_ZN_c3 - pmos_net_ZN_c4 - 5 nmos_net_ZN_c0 - nmos_net_ZN_c2
   - nmos_net_ZN_c3 - nmos_net_ZN_c4 + 5 b_net_ZN_col1_left >= -5
 b_net_le_sumother_ZN_col1_left: - pmos_net_ZN_c2 - pmos_net_ZN_c3
   - pmos_net_ZN_c4 - nmos_net_ZN_c2 - nmos_net_ZN_c3 - nmos_net_ZN_c4
   + b_net_ZN_col1_left <= 0
 a_net_le_pmos_A2_col3_left: - pmos_net_A2_c2 + a_net_A2_col3_left <= 0
 a_net_le_sumother_A2_col3_left: - pmos_net_A2_c0 - pmos_net_A2_c1
   - pmos_net_A2_c4 + a_net_A2_col3_left <= 0
 a_net_ge_sumother_A2_col3_left: - pmos_net_A2_c0 - pmos_net_A2_c1
   - 5 pmos_net_A2_c2 - pmos_net_A2_c4 + 5 a_net_A2_col3_left >= -5
 a_net_le_pmos_A1_col3_left: - pmos_net_A1_c2 + a_net_A1_col3_left <= 0
 a_net_le_sumother_A1_col3_left: - pmos_net_A1_c0 - pmos_net_A1_c1
   - pmos_net_A1_c4 + a_net_A1_col3_left <= 0
 a_net_ge_sumother_A1_col3_left: - pmos_net_A1_c0 - pmos_net_A1_c1
   - 5 pmos_net_A1_c2 - pmos_net_A1_c4 + 5 a_net_A1_col3_left >= -5
 a_net_le_pmos_ZN_col3_left: - pmos_net_ZN_c2 + a_net_ZN_col3_left <= 0
 a_net_le_sumother_ZN_col3_left: - pmos_net_ZN_c0 - pmos_net_ZN_c1
   - pmos_net_ZN_c4 - nmos_net_ZN_c0 - nmos_net_ZN_c1 - nmos_net_ZN_c4
   + a_net_ZN_col3_left <= 0
 a_net_ge_sumother_ZN_col3_left: - pmos_net_ZN_c0 - pmos_net_ZN_c1
   - 5 pmos_net_ZN_c2 - pmos_net_ZN_c4 - nmos_net_ZN_c0 - nmos_net_ZN_c1
   - nmos_net_ZN_c4 + 5 a_net_ZN_col3_left >= -5
 b_net_le_nmos_A2_col3_left: - nmos_net_A2_c2 + b_net_A2_col3_left <= 0
 b_net_ge_sumother_A2_col3_left: - nmos_net_A2_c0 - nmos_net_A2_c1
   - 5 nmos_net_A2_c2 - nmos_net_A2_c4 + 5 b_net_A2_col3_left >= -5
 b_net_le_sumother_A2_col3_left: - nmos_net_A2_c0 - nmos_net_A2_c1
   - nmos_net_A2_c4 + b_net_A2_col3_left <= 0
 b_net_le_nmos_net16_col3_left: - nmos_net_net16_c2 + b_net_net16_col3_left
   <= 0
 b_net_ge_sumother_net16_col3_left: - nmos_net_net16_c0 - nmos_net_net16_c1
   - 5 nmos_net_net16_c2 - nmos_net_net16_c4 + 5 b_net_net16_col3_left
   >= -5
 b_net_le_sumother_net16_col3_left: - nmos_net_net16_c0 - nmos_net_net16_c1
   - nmos_net_net16_c4 + b_net_net16_col3_left <= 0
 b_net_le_nmos_A1_col3_left: - nmos_net_A1_c2 + b_net_A1_col3_left <= 0
 b_net_ge_sumother_A1_col3_left: - nmos_net_A1_c0 - nmos_net_A1_c1
   - 5 nmos_net_A1_c2 - nmos_net_A1_c4 + 5 b_net_A1_col3_left >= -5
 b_net_le_sumother_A1_col3_left: - nmos_net_A1_c0 - nmos_net_A1_c1
   - nmos_net_A1_c4 + b_net_A1_col3_left <= 0
 b_net_le_nmos_ZN_col3_left: - nmos_net_ZN_c2 + b_net_ZN_col3_left <= 0
 b_net_already_ZN_col3_left: a_net_ZN_col3_left + b_net_ZN_col3_left <= 1
 b_net_ge_sumother_ZN_col3_left: - pmos_net_ZN_c0 - pmos_net_ZN_c1
   + 5 pmos_net_ZN_c2 - pmos_net_ZN_c4 - nmos_net_ZN_c0 - nmos_net_ZN_c1
   - 5 nmos_net_ZN_c2 - nmos_net_ZN_c4 + 5 b_net_ZN_col3_left >= -5
 b_net_le_sumother_ZN_col3_left: - pmos_net_ZN_c0 - pmos_net_ZN_c1
   - pmos_net_ZN_c4 - nmos_net_ZN_c0 - nmos_net_ZN_c1 - nmos_net_ZN_c4
   + b_net_ZN_col3_left <= 0
 a_net_le_pmos_A2_col1_right: - pmos_net_A2_c2 + a_net_A2_col1_right <= 0
 a_net_le_sumother_A2_col1_right: - pmos_net_A2_c0 - pmos_net_A2_c3
   - pmos_net_A2_c4 + a_net_A2_col1_right <= 0
 a_net_ge_sumother_A2_col1_right: - pmos_net_A2_c0 - 5 pmos_net_A2_c2
   - pmos_net_A2_c3 - pmos_net_A2_c4 + 5 a_net_A2_col1_right >= -5
 a_net_le_pmos_A1_col1_right: - pmos_net_A1_c2 + a_net_A1_col1_right <= 0
 a_net_le_sumother_A1_col1_right: - pmos_net_A1_c0 - pmos_net_A1_c3
   - pmos_net_A1_c4 + a_net_A1_col1_right <= 0
 a_net_ge_sumother_A1_col1_right: - pmos_net_A1_c0 - 5 pmos_net_A1_c2
   - pmos_net_A1_c3 - pmos_net_A1_c4 + 5 a_net_A1_col1_right >= -5
 a_net_le_pmos_ZN_col1_right: - pmos_net_ZN_c2 + a_net_ZN_col1_right <= 0
 a_net_le_sumother_ZN_col1_right: - pmos_net_ZN_c0 - pmos_net_ZN_c3
   - pmos_net_ZN_c4 - nmos_net_ZN_c0 - nmos_net_ZN_c3 - nmos_net_ZN_c4
   + a_net_ZN_col1_right <= 0
 a_net_ge_sumother_ZN_col1_right: - pmos_net_ZN_c0 - 5 pmos_net_ZN_c2
   - pmos_net_ZN_c3 - pmos_net_ZN_c4 - nmos_net_ZN_c0 - nmos_net_ZN_c3
   - nmos_net_ZN_c4 + 5 a_net_ZN_col1_right >= -5
 b_net_le_nmos_A2_col1_right: - nmos_net_A2_c2 + b_net_A2_col1_right <= 0
 b_net_ge_sumother_A2_col1_right: - nmos_net_A2_c0 - 5 nmos_net_A2_c2
   - nmos_net_A2_c3 - nmos_net_A2_c4 + 5 b_net_A2_col1_right >= -5
 b_net_le_sumother_A2_col1_right: - nmos_net_A2_c0 - nmos_net_A2_c3
   - nmos_net_A2_c4 + b_net_A2_col1_right <= 0
 b_net_le_nmos_net16_col1_right: - nmos_net_net16_c2
   + b_net_net16_col1_right <= 0
 b_net_ge_sumother_net16_col1_right: - nmos_net_net16_c0
   - 5 nmos_net_net16_c2 - nmos_net_net16_c3 - nmos_net_net16_c4
   + 5 b_net_net16_col1_right >= -5
 b_net_le_sumother_net16_col1_right: - nmos_net_net16_c0
   - nmos_net_net16_c3 - nmos_net_net16_c4 + b_net_net16_col1_right <= 0
 b_net_le_nmos_A1_col1_right: - nmos_net_A1_c2 + b_net_A1_col1_right <= 0
 b_net_ge_sumother_A1_col1_right: - nmos_net_A1_c0 - 5 nmos_net_A1_c2
   - nmos_net_A1_c3 - nmos_net_A1_c4 + 5 b_net_A1_col1_right >= -5
 b_net_le_sumother_A1_col1_right: - nmos_net_A1_c0 - nmos_net_A1_c3
   - nmos_net_A1_c4 + b_net_A1_col1_right <= 0
 b_net_le_nmos_ZN_col1_right: - nmos_net_ZN_c2 + b_net_ZN_col1_right <= 0
 b_net_already_ZN_col1_right: a_net_ZN_col1_right + b_net_ZN_col1_right
   <= 1
 b_net_ge_sumother_ZN_col1_right: - pmos_net_ZN_c0 + 5 pmos_net_ZN_c2
   - pmos_net_ZN_c3 - pmos_net_ZN_c4 - nmos_net_ZN_c0 - 5 nmos_net_ZN_c2
   - nmos_net_ZN_c3 - nmos_net_ZN_c4 + 5 b_net_ZN_col1_right >= -5
 b_net_le_sumother_ZN_col1_right: - pmos_net_ZN_c0 - pmos_net_ZN_c3
   - pmos_net_ZN_c4 - nmos_net_ZN_c0 - nmos_net_ZN_c3 - nmos_net_ZN_c4
   + b_net_ZN_col1_right <= 0
 a_net_le_pmos_A2_col3_right: - pmos_net_A2_c4 + a_net_A2_col3_right <= 0
 a_net_le_sumother_A2_col3_right: - pmos_net_A2_c0 - pmos_net_A2_c1
   - pmos_net_A2_c2 + a_net_A2_col3_right <= 0
 a_net_ge_sumother_A2_col3_right: - pmos_net_A2_c0 - pmos_net_A2_c1
   - pmos_net_A2_c2 - 5 pmos_net_A2_c4 + 5 a_net_A2_col3_right >= -5
 a_net_le_pmos_A1_col3_right: - pmos_net_A1_c4 + a_net_A1_col3_right <= 0
 a_net_le_sumother_A1_col3_right: - pmos_net_A1_c0 - pmos_net_A1_c1
   - pmos_net_A1_c2 + a_net_A1_col3_right <= 0
 a_net_ge_sumother_A1_col3_right: - pmos_net_A1_c0 - pmos_net_A1_c1
   - pmos_net_A1_c2 - 5 pmos_net_A1_c4 + 5 a_net_A1_col3_right >= -5
 a_net_le_pmos_ZN_col3_right: - pmos_net_ZN_c4 + a_net_ZN_col3_right <= 0
 a_net_le_sumother_ZN_col3_right: - pmos_net_ZN_c0 - pmos_net_ZN_c1
   - pmos_net_ZN_c2 - nmos_net_ZN_c0 - nmos_net_ZN_c1 - nmos_net_ZN_c2
   + a_net_ZN_col3_right <= 0
 a_net_ge_sumother_ZN_col3_right: - pmos_net_ZN_c0 - pmos_net_ZN_c1
   - pmos_net_ZN_c2 - 5 pmos_net_ZN_c4 - nmos_net_ZN_c0 - nmos_net_ZN_c1
   - nmos_net_ZN_c2 + 5 a_net_ZN_col3_right >= -5
 b_net_le_nmos_A2_col3_right: - nmos_net_A2_c4 + b_net_A2_col3_right <= 0
 b_net_ge_sumother_A2_col3_right: - nmos_net_A2_c0 - nmos_net_A2_c1
   - nmos_net_A2_c2 - 5 nmos_net_A2_c4 + 5 b_net_A2_col3_right >= -5
 b_net_le_sumother_A2_col3_right: - nmos_net_A2_c0 - nmos_net_A2_c1
   - nmos_net_A2_c2 + b_net_A2_col3_right <= 0
 b_net_le_nmos_net16_col3_right: - nmos_net_net16_c4
   + b_net_net16_col3_right <= 0
 b_net_ge_sumother_net16_col3_right: - nmos_net_net16_c0
   - nmos_net_net16_c1 - nmos_net_net16_c2 - 5 nmos_net_net16_c4
   + 5 b_net_net16_col3_right >= -5
 b_net_le_sumother_net16_col3_right: - nmos_net_net16_c0
   - nmos_net_net16_c1 - nmos_net_net16_c2 + b_net_net16_col3_right <= 0
 b_net_le_nmos_A1_col3_right: - nmos_net_A1_c4 + b_net_A1_col3_right <= 0
 b_net_ge_sumother_A1_col3_right: - nmos_net_A1_c0 - nmos_net_A1_c1
   - nmos_net_A1_c2 - 5 nmos_net_A1_c4 + 5 b_net_A1_col3_right >= -5
 b_net_le_sumother_A1_col3_right: - nmos_net_A1_c0 - nmos_net_A1_c1
   - nmos_net_A1_c2 + b_net_A1_col3_right <= 0
 b_net_le_nmos_ZN_col3_right: - nmos_net_ZN_c4 + b_net_ZN_col3_right <= 0
 b_net_already_ZN_col3_right: a_net_ZN_col3_right + b_net_ZN_col3_right
   <= 1
 b_net_ge_sumother_ZN_col3_right: - pmos_net_ZN_c0 - pmos_net_ZN_c1
   - pmos_net_ZN_c2 + 5 pmos_net_ZN_c4 - nmos_net_ZN_c0 - nmos_net_ZN_c1
   - nmos_net_ZN_c2 - 5 nmos_net_ZN_c4 + 5 b_net_ZN_col3_right >= -5
 b_net_le_sumother_ZN_col3_right: - pmos_net_ZN_c0 - pmos_net_ZN_c1
   - pmos_net_ZN_c2 - nmos_net_ZN_c0 - nmos_net_ZN_c1 - nmos_net_ZN_c2
   + b_net_ZN_col3_right <= 0
 a_ZN_col1_rule1: - a_net_A2_col1_left - a_net_A1_col1_left
   - a_net_ZN_col1_left + a_ZN_col1_final >= 0
 a_ZN_col1_rule2: - a_net_A2_col1_right - a_net_A1_col1_right
   - a_net_ZN_col1_right + a_ZN_col1_final >= 0
 a_ZN_col1_rule3: - a_net_A2_col1_left - a_net_A1_col1_left
   - a_net_ZN_col1_left - a_net_A2_col1_right - a_net_A1_col1_right
   - a_net_ZN_col1_right + a_ZN_col1_final <= 0
 b_ZN_col1_rule1: - b_net_A2_col1_left - b_net_net16_col1_left
   - b_net_A1_col1_left - b_net_ZN_col1_left + b_ZN_col1_final >= 0
 b_ZN_col1_rule2: - b_net_A2_col1_right - b_net_net16_col1_right
   - b_net_A1_col1_right - b_net_ZN_col1_right + b_ZN_col1_final >= 0
 b_ZN_col1_rule3: - b_net_A2_col1_left - b_net_net16_col1_left
   - b_net_A1_col1_left - b_net_ZN_col1_left - b_net_A2_col1_right
   - b_net_net16_col1_right - b_net_A1_col1_right - b_net_ZN_col1_right
   + b_ZN_col1_final <= 0
 a_ZN_col3_rule1: - a_net_A2_col3_left - a_net_A1_col3_left
   - a_net_ZN_col3_left + a_ZN_col3_final >= 0
 a_ZN_col3_rule2: - a_net_A2_col3_right - a_net_A1_col3_right
   - a_net_ZN_col3_right + a_ZN_col3_final >= 0
 a_ZN_col3_rule3: - a_net_A2_col3_left - a_net_A1_col3_left
   - a_net_ZN_col3_left - a_net_A2_col3_right - a_net_A1_col3_right
   - a_net_ZN_col3_right + a_ZN_col3_final <= 0
 b_ZN_col3_rule1: - b_net_A2_col3_left - b_net_net16_col3_left
   - b_net_A1_col3_left - b_net_ZN_col3_left + b_ZN_col3_final >= 0
 b_ZN_col3_rule2: - b_net_A2_col3_right - b_net_net16_col3_right
   - b_net_A1_col3_right - b_net_ZN_col3_right + b_ZN_col3_final >= 0
 b_ZN_col3_rule3: - b_net_A2_col3_left - b_net_net16_col3_left
   - b_net_A1_col3_left - b_net_ZN_col3_left - b_net_A2_col3_right
   - b_net_net16_col3_right - b_net_A1_col3_right - b_net_ZN_col3_right
   + b_ZN_col3_final <= 0
 left_exist_rule1_1_A2: left_A2_exist_1 <= 0
 left_exist_rule2_1_A2: 5 left_A2_exist_1 >= 0
 right_exist_rule1_1_A2: - pmos_net_A2_c3 - pmos_net_A2_c4 - nmos_net_A2_c3
   - nmos_net_A2_c4 + right_A2_exist_1 <= 0
 right_exist_rule2_1_A2: - pmos_net_A2_c3 - pmos_net_A2_c4 - nmos_net_A2_c3
   - nmos_net_A2_c4 + 5 right_A2_exist_1 >= 0
 min_cut_rule1_1_A2: e_net_A2_col1 - left_A2_exist_1 <= 0
 min_cut_rule2_1_A2: e_net_A2_col1 - right_A2_exist_1 <= 0
 min_cut_rule3_1_A2: 5 e_net_A2_col1 - left_A2_exist_1 - right_A2_exist_1
   >= -1
 left_exist_rule1_1_net16: left_net16_exist_1 <= 0
 left_exist_rule2_1_net16: 5 left_net16_exist_1 >= 0
 right_exist_rule1_1_net16: - nmos_net_net16_c3 - nmos_net_net16_c4
   + right_net16_exist_1 <= 0
 right_exist_rule2_1_net16: - nmos_net_net16_c3 - nmos_net_net16_c4
   + 5 right_net16_exist_1 >= 0
 min_cut_rule1_1_net16: e_net_net16_col1 - left_net16_exist_1 <= 0
 min_cut_rule2_1_net16: e_net_net16_col1 - right_net16_exist_1 <= 0
 min_cut_rule3_1_net16: 5 e_net_net16_col1 - left_net16_exist_1
   - right_net16_exist_1 >= -1
 left_exist_rule1_1_A1: left_A1_exist_1 <= 0
 left_exist_rule2_1_A1: 5 left_A1_exist_1 >= 0
 right_exist_rule1_1_A1: - pmos_net_A1_c3 - pmos_net_A1_c4 - nmos_net_A1_c3
   - nmos_net_A1_c4 + right_A1_exist_1 <= 0
 right_exist_rule2_1_A1: - pmos_net_A1_c3 - pmos_net_A1_c4 - nmos_net_A1_c3
   - nmos_net_A1_c4 + 5 right_A1_exist_1 >= 0
 min_cut_rule1_1_A1: e_net_A1_col1 - left_A1_exist_1 <= 0
 min_cut_rule2_1_A1: e_net_A1_col1 - right_A1_exist_1 <= 0
 min_cut_rule3_1_A1: 5 e_net_A1_col1 - left_A1_exist_1 - right_A1_exist_1
   >= -1
 left_exist_rule1_1_ZN: left_ZN_exist_1 <= 0
 left_exist_rule2_1_ZN: 5 left_ZN_exist_1 >= 0
 right_exist_rule1_1_ZN: - pmos_net_ZN_c3 - pmos_net_ZN_c4
   + right_ZN_exist_1 <= 0
 right_exist_rule2_1_ZN: - pmos_net_ZN_c3 - pmos_net_ZN_c4
   + 5 right_ZN_exist_1 >= 0
 min_cut_rule1_1_ZN: e_net_ZN_col1 - left_ZN_exist_1 <= 0
 min_cut_rule2_1_ZN: e_net_ZN_col1 - right_ZN_exist_1 <= 0
 min_cut_rule3_1_ZN: 5 e_net_ZN_col1 - left_ZN_exist_1 - right_ZN_exist_1
   >= -1
 left_exist_rule1_3_A2: - pmos_net_A2_c0 - pmos_net_A2_c1 - nmos_net_A2_c0
   - nmos_net_A2_c1 + left_A2_exist_3 <= 0
 left_exist_rule2_3_A2: - pmos_net_A2_c0 - pmos_net_A2_c1 - nmos_net_A2_c0
   - nmos_net_A2_c1 + 5 left_A2_exist_3 >= 0
 right_exist_rule1_3_A2: right_A2_exist_3 <= 0
 right_exist_rule2_3_A2: 5 right_A2_exist_3 >= 0
 min_cut_rule1_3_A2: e_net_A2_col3 - left_A2_exist_3 <= 0
 min_cut_rule2_3_A2: e_net_A2_col3 - right_A2_exist_3 <= 0
 min_cut_rule3_3_A2: 5 e_net_A2_col3 - left_A2_exist_3 - right_A2_exist_3
   >= -1
 left_exist_rule1_3_net16: - nmos_net_net16_c0 - nmos_net_net16_c1
   + left_net16_exist_3 <= 0
 left_exist_rule2_3_net16: - nmos_net_net16_c0 - nmos_net_net16_c1
   + 5 left_net16_exist_3 >= 0
 right_exist_rule1_3_net16: right_net16_exist_3 <= 0
 right_exist_rule2_3_net16: 5 right_net16_exist_3 >= 0
 min_cut_rule1_3_net16: e_net_net16_col3 - left_net16_exist_3 <= 0
 min_cut_rule2_3_net16: e_net_net16_col3 - right_net16_exist_3 <= 0
 min_cut_rule3_3_net16: 5 e_net_net16_col3 - left_net16_exist_3
   - right_net16_exist_3 >= -1
 left_exist_rule1_3_A1: - pmos_net_A1_c0 - pmos_net_A1_c1 - nmos_net_A1_c0
   - nmos_net_A1_c1 + left_A1_exist_3 <= 0
 left_exist_rule2_3_A1: - pmos_net_A1_c0 - pmos_net_A1_c1 - nmos_net_A1_c0
   - nmos_net_A1_c1 + 5 left_A1_exist_3 >= 0
 right_exist_rule1_3_A1: right_A1_exist_3 <= 0
 right_exist_rule2_3_A1: 5 right_A1_exist_3 >= 0
 min_cut_rule1_3_A1: e_net_A1_col3 - left_A1_exist_3 <= 0
 min_cut_rule2_3_A1: e_net_A1_col3 - right_A1_exist_3 <= 0
 min_cut_rule3_3_A1: 5 e_net_A1_col3 - left_A1_exist_3 - right_A1_exist_3
   >= -1
 left_exist_rule1_3_ZN: - pmos_net_ZN_c0 - pmos_net_ZN_c1 + left_ZN_exist_3
   <= 0
 left_exist_rule2_3_ZN: - pmos_net_ZN_c0 - pmos_net_ZN_c1
   + 5 left_ZN_exist_3 >= 0
 right_exist_rule1_3_ZN: right_ZN_exist_3 <= 0
 right_exist_rule2_3_ZN: 5 right_ZN_exist_3 >= 0
 min_cut_rule1_3_ZN: e_net_ZN_col3 - left_ZN_exist_3 <= 0
 min_cut_rule2_3_ZN: e_net_ZN_col3 - right_ZN_exist_3 <= 0
 min_cut_rule3_3_ZN: 5 e_net_ZN_col3 - left_ZN_exist_3 - right_ZN_exist_3
   >= -1
 track_limit_col1: misalign_c1 + a_ZN_col1_final + b_ZN_col1_final <= 3
 track_plus_e_limit_col1: misalign_c1 + a_ZN_col1_final + b_ZN_col1_final
   + e_net_A2_col1 + e_net_net16_col1 + e_net_A1_col1 + e_net_ZN_col1 <= 7
 track_limit_col3: misalign_c3 + a_ZN_col3_final + b_ZN_col3_final <= 3
 track_plus_e_limit_col3: misalign_c3 + a_ZN_col3_final + b_ZN_col3_final
   + e_net_A2_col3 + e_net_net16_col3 + e_net_A1_col3 + e_net_ZN_col3 <= 7
 root_find_A2_pp_3: indicator_A2_pp_3 - root_node_A2_pp_3 >= 0
 root_find_A2_nn_3: indicator_A2_nn_3 - root_node_A2_nn_3 >= 0
 root_find_A2_ac_3: indicator_A2_ac_3 - root_node_A2_ac_3 >= 0
 max_indicator_find_A2_pp_3: indicator_A2_pp_3 - max_indicator_A2_pp_3
   >= 0
 max_indicator_find_A2_nn_3: indicator_A2_nn_3 - max_indicator_A2_nn_3
   >= 0
 max_indicator_find_A2_ac_3: indicator_A2_ac_3 - max_indicator_A2_ac_3
   >= 0
 lower_bound_A2_ac_3: - pmos_net_A2_c0 - nmos_net_A2_c0 + indicator_A2_ac_3
   >= -1
 upper_bound_v1_A2_ac_3: - pmos_net_A2_c0 + indicator_A2_ac_3 <= 0
 upper_bound_v2_A2_ac_3: - nmos_net_A2_c0 + indicator_A2_ac_3 <= 0
 combined_net_A2_pp_3: - pmos_net_A2_c0 + indicator_A2_pp_3
   + indicator_A2_ac_3 = 0
 combined_net_A2_nn_3: - nmos_net_A2_c0 + indicator_A2_nn_3
   + indicator_A2_ac_3 = 0
 min_indicator_constr_p_A2_0: min_indicator_A2 + 5 indicator_A2_pp_3 <= 5
 min_indicator_constr_n_A2_0: min_indicator_A2 + 5 indicator_A2_nn_3 <= 5
 min_indicator_constr_a_A2_0: min_indicator_A2 + 5 indicator_A2_ac_3 <= 5
 root_node_match_p_A2_0: - min_indicator_A2 <= 0
 root_node_match_n_A2_0: - min_indicator_A2 <= 0
 root_node_match_a_A2_0: - min_indicator_A2 <= 0
 max_bbox_constr_p_A2_0: max_bbox_A2 - 5 indicator_A2_pp_3 >= -5
 max_bbox_constr_n_A2_0: max_bbox_A2 - 5 indicator_A2_nn_3 >= -5
 max_bbox_constr_a_A2_0: max_bbox_A2 - 5 indicator_A2_ac_3 >= -5
 max_indicator_match_p_A2_0: - max_bbox_A2 - 4 max_indicator_A2_pp_3 >= -4
 max_indicator_match_n_A2_0: - max_bbox_A2 - 4 max_indicator_A2_nn_3 >= -4
 max_indicator_match_a_A2_0: - max_bbox_A2 - 4 max_indicator_A2_ac_3 >= -4
 root_find_A2_pp_6: indicator_A2_pp_6 - root_node_A2_pp_6 >= 0
 root_find_A2_nn_6: indicator_A2_nn_6 - root_node_A2_nn_6 >= 0
 root_find_A2_ac_6: indicator_A2_ac_6 - root_node_A2_ac_6 >= 0
 max_indicator_find_A2_pp_6: indicator_A2_pp_6 - max_indicator_A2_pp_6
   >= 0
 max_indicator_find_A2_nn_6: indicator_A2_nn_6 - max_indicator_A2_nn_6
   >= 0
 max_indicator_find_A2_ac_6: indicator_A2_ac_6 - max_indicator_A2_ac_6
   >= 0
 lower_bound_A2_ac_6: - pmos_net_A2_c1 - nmos_net_A2_c1 + indicator_A2_ac_6
   >= -1
 upper_bound_v1_A2_ac_6: - pmos_net_A2_c1 + indicator_A2_ac_6 <= 0
 upper_bound_v2_A2_ac_6: - nmos_net_A2_c1 + indicator_A2_ac_6 <= 0
 combined_net_A2_pp_6: - pmos_net_A2_c1 + indicator_A2_pp_6
   + indicator_A2_ac_6 = 0
 combined_net_A2_nn_6: - nmos_net_A2_c1 + indicator_A2_nn_6
   + indicator_A2_ac_6 = 0
 min_indicator_constr_p_A2_1: min_indicator_A2 + 5 indicator_A2_pp_6 <= 6
 min_indicator_constr_n_A2_1: min_indicator_A2 + 5 indicator_A2_nn_6 <= 6
 min_indicator_constr_a_A2_1: min_indicator_A2 + 5 indicator_A2_ac_6 <= 6
 root_node_match_p_A2_1: - min_indicator_A2 + root_node_A2_pp_6 <= 0
 root_node_match_n_A2_1: - min_indicator_A2 + root_node_A2_nn_6 <= 0
 root_node_match_a_A2_1: - min_indicator_A2 + root_node_A2_ac_6 <= 0
 max_bbox_constr_p_A2_1: max_bbox_A2 - 5 indicator_A2_pp_6 >= -4
 max_bbox_constr_n_A2_1: max_bbox_A2 - 5 indicator_A2_nn_6 >= -4
 max_bbox_constr_a_A2_1: max_bbox_A2 - 5 indicator_A2_ac_6 >= -4
 max_indicator_match_p_A2_1: - max_bbox_A2 - 3 max_indicator_A2_pp_6 >= -4
 max_indicator_match_n_A2_1: - max_bbox_A2 - 3 max_indicator_A2_nn_6 >= -4
 max_indicator_match_a_A2_1: - max_bbox_A2 - 3 max_indicator_A2_ac_6 >= -4
 root_find_A2_pp_9: indicator_A2_pp_9 - root_node_A2_pp_9 >= 0
 root_find_A2_nn_9: indicator_A2_nn_9 - root_node_A2_nn_9 >= 0
 root_find_A2_ac_9: indicator_A2_ac_9 - root_node_A2_ac_9 >= 0
 max_indicator_find_A2_pp_9: indicator_A2_pp_9 - max_indicator_A2_pp_9
   >= 0
 max_indicator_find_A2_nn_9: indicator_A2_nn_9 - max_indicator_A2_nn_9
   >= 0
 max_indicator_find_A2_ac_9: indicator_A2_ac_9 - max_indicator_A2_ac_9
   >= 0
 lower_bound_A2_ac_9: - pmos_net_A2_c2 - nmos_net_A2_c2 + indicator_A2_ac_9
   >= -1
 upper_bound_v1_A2_ac_9: - pmos_net_A2_c2 + indicator_A2_ac_9 <= 0
 upper_bound_v2_A2_ac_9: - nmos_net_A2_c2 + indicator_A2_ac_9 <= 0
 combined_net_A2_pp_9: - pmos_net_A2_c2 + indicator_A2_pp_9
   + indicator_A2_ac_9 = 0
 combined_net_A2_nn_9: - nmos_net_A2_c2 + indicator_A2_nn_9
   + indicator_A2_ac_9 = 0
 min_indicator_constr_p_A2_2: min_indicator_A2 + 5 indicator_A2_pp_9 <= 7
 min_indicator_constr_n_A2_2: min_indicator_A2 + 5 indicator_A2_nn_9 <= 7
 min_indicator_constr_a_A2_2: min_indicator_A2 + 5 indicator_A2_ac_9 <= 7
 root_node_match_p_A2_2: - min_indicator_A2 + 2 root_node_A2_pp_9 <= 0
 root_node_match_n_A2_2: - min_indicator_A2 + 2 root_node_A2_nn_9 <= 0
 root_node_match_a_A2_2: - min_indicator_A2 + 2 root_node_A2_ac_9 <= 0
 max_bbox_constr_p_A2_2: max_bbox_A2 - 5 indicator_A2_pp_9 >= -3
 max_bbox_constr_n_A2_2: max_bbox_A2 - 5 indicator_A2_nn_9 >= -3
 max_bbox_constr_a_A2_2: max_bbox_A2 - 5 indicator_A2_ac_9 >= -3
 max_indicator_match_p_A2_2: - max_bbox_A2 - 2 max_indicator_A2_pp_9 >= -4
 max_indicator_match_n_A2_2: - max_bbox_A2 - 2 max_indicator_A2_nn_9 >= -4
 max_indicator_match_a_A2_2: - max_bbox_A2 - 2 max_indicator_A2_ac_9 >= -4
 root_find_A2_pp_12: indicator_A2_pp_12 - root_node_A2_pp_12 >= 0
 root_find_A2_nn_12: indicator_A2_nn_12 - root_node_A2_nn_12 >= 0
 root_find_A2_ac_12: indicator_A2_ac_12 - root_node_A2_ac_12 >= 0
 max_indicator_find_A2_pp_12: indicator_A2_pp_12 - max_indicator_A2_pp_12
   >= 0
 max_indicator_find_A2_nn_12: indicator_A2_nn_12 - max_indicator_A2_nn_12
   >= 0
 max_indicator_find_A2_ac_12: indicator_A2_ac_12 - max_indicator_A2_ac_12
   >= 0
 lower_bound_A2_ac_12: - pmos_net_A2_c3 - nmos_net_A2_c3
   + indicator_A2_ac_12 >= -1
 upper_bound_v1_A2_ac_12: - pmos_net_A2_c3 + indicator_A2_ac_12 <= 0
 upper_bound_v2_A2_ac_12: - nmos_net_A2_c3 + indicator_A2_ac_12 <= 0
 combined_net_A2_pp_12: - pmos_net_A2_c3 + indicator_A2_pp_12
   + indicator_A2_ac_12 = 0
 combined_net_A2_nn_12: - nmos_net_A2_c3 + indicator_A2_nn_12
   + indicator_A2_ac_12 = 0
 min_indicator_constr_p_A2_3: min_indicator_A2 + 5 indicator_A2_pp_12 <= 8
 min_indicator_constr_n_A2_3: min_indicator_A2 + 5 indicator_A2_nn_12 <= 8
 min_indicator_constr_a_A2_3: min_indicator_A2 + 5 indicator_A2_ac_12 <= 8
 root_node_match_p_A2_3: - min_indicator_A2 + 3 root_node_A2_pp_12 <= 0
 root_node_match_n_A2_3: - min_indicator_A2 + 3 root_node_A2_nn_12 <= 0
 root_node_match_a_A2_3: - min_indicator_A2 + 3 root_node_A2_ac_12 <= 0
 max_bbox_constr_p_A2_3: max_bbox_A2 - 5 indicator_A2_pp_12 >= -2
 max_bbox_constr_n_A2_3: max_bbox_A2 - 5 indicator_A2_nn_12 >= -2
 max_bbox_constr_a_A2_3: max_bbox_A2 - 5 indicator_A2_ac_12 >= -2
 max_indicator_match_p_A2_3: - max_bbox_A2 - max_indicator_A2_pp_12 >= -4
 max_indicator_match_n_A2_3: - max_bbox_A2 - max_indicator_A2_nn_12 >= -4
 max_indicator_match_a_A2_3: - max_bbox_A2 - max_indicator_A2_ac_12 >= -4
 root_find_A2_pp_15: indicator_A2_pp_15 - root_node_A2_pp_15 >= 0
 root_find_A2_nn_15: indicator_A2_nn_15 - root_node_A2_nn_15 >= 0
 root_find_A2_ac_15: indicator_A2_ac_15 - root_node_A2_ac_15 >= 0
 max_indicator_find_A2_pp_15: indicator_A2_pp_15 - max_indicator_A2_pp_15
   >= 0
 max_indicator_find_A2_nn_15: indicator_A2_nn_15 - max_indicator_A2_nn_15
   >= 0
 max_indicator_find_A2_ac_15: indicator_A2_ac_15 - max_indicator_A2_ac_15
   >= 0
 lower_bound_A2_ac_15: - pmos_net_A2_c4 - nmos_net_A2_c4
   + indicator_A2_ac_15 >= -1
 upper_bound_v1_A2_ac_15: - pmos_net_A2_c4 + indicator_A2_ac_15 <= 0
 upper_bound_v2_A2_ac_15: - nmos_net_A2_c4 + indicator_A2_ac_15 <= 0
 combined_net_A2_pp_15: - pmos_net_A2_c4 + indicator_A2_pp_15
   + indicator_A2_ac_15 = 0
 combined_net_A2_nn_15: - nmos_net_A2_c4 + indicator_A2_nn_15
   + indicator_A2_ac_15 = 0
 min_indicator_constr_p_A2_4: min_indicator_A2 + 5 indicator_A2_pp_15 <= 9
 min_indicator_constr_n_A2_4: min_indicator_A2 + 5 indicator_A2_nn_15 <= 9
 min_indicator_constr_a_A2_4: min_indicator_A2 + 5 indicator_A2_ac_15 <= 9
 root_node_match_p_A2_4: - min_indicator_A2 + 4 root_node_A2_pp_15 <= 0
 root_node_match_n_A2_4: - min_indicator_A2 + 4 root_node_A2_nn_15 <= 0
 root_node_match_a_A2_4: - min_indicator_A2 + 4 root_node_A2_ac_15 <= 0
 max_bbox_constr_p_A2_4: max_bbox_A2 - 5 indicator_A2_pp_15 >= -1
 max_bbox_constr_n_A2_4: max_bbox_A2 - 5 indicator_A2_nn_15 >= -1
 max_bbox_constr_a_A2_4: max_bbox_A2 - 5 indicator_A2_ac_15 >= -1
 max_indicator_match_p_A2_4: - max_bbox_A2 >= -4
 max_indicator_match_n_A2_4: - max_bbox_A2 >= -4
 max_indicator_match_a_A2_4: - max_bbox_A2 >= -4
 one_root_node_enable_A2: root_node_A2_pp_3 + root_node_A2_nn_3
   + root_node_A2_ac_3 + root_node_A2_pp_6 + root_node_A2_nn_6
   + root_node_A2_ac_6 + root_node_A2_pp_9 + root_node_A2_nn_9
   + root_node_A2_ac_9 + root_node_A2_pp_12 + root_node_A2_nn_12
   + root_node_A2_ac_12 + root_node_A2_pp_15 + root_node_A2_nn_15
   + root_node_A2_ac_15 = 1
 one_max_indicator_enable_A2: max_indicator_A2_pp_3 + max_indicator_A2_nn_3
   + max_indicator_A2_ac_3 + max_indicator_A2_pp_6 + max_indicator_A2_nn_6
   + max_indicator_A2_ac_6 + max_indicator_A2_pp_9 + max_indicator_A2_nn_9
   + max_indicator_A2_ac_9 + max_indicator_A2_pp_12
   + max_indicator_A2_nn_12 + max_indicator_A2_ac_12
   + max_indicator_A2_pp_15 + max_indicator_A2_nn_15
   + max_indicator_A2_ac_15 = 1
 y_detector_dtermine_lb_A2_1: - indicator_A2_pp_3 - indicator_A2_nn_3
   - indicator_A2_ac_3 - indicator_A2_pp_6 - indicator_A2_nn_6
   - indicator_A2_ac_6 - indicator_A2_pp_9 - indicator_A2_nn_9
   - indicator_A2_ac_9 - indicator_A2_pp_12 - indicator_A2_nn_12
   - indicator_A2_ac_12 - indicator_A2_pp_15 - indicator_A2_nn_15
   - indicator_A2_ac_15 + 5 io_detector_A2 >= 0
 y_detector_dtermine_ub_A2_1: - indicator_A2_pp_3 - indicator_A2_nn_3
   - indicator_A2_ac_3 - indicator_A2_pp_6 - indicator_A2_nn_6
   - indicator_A2_ac_6 - indicator_A2_pp_9 - indicator_A2_nn_9
   - indicator_A2_ac_9 - indicator_A2_pp_12 - indicator_A2_nn_12
   - indicator_A2_ac_12 - indicator_A2_pp_15 - indicator_A2_nn_15
   - indicator_A2_ac_15 + io_detector_A2 <= 0
 on_off_constraint_by_indicator_A2_pv_3_pp_3_co: - indicator_A2_pp_3
   + y_A2_edge_connector_pv_3_pp_3_co <= 0
 on_off_constraint_by_sum_actives_A2_pv_3_pp_3_co: - io_detector_A2
   + y_A2_edge_connector_pv_3_pp_3_co <= 0
 on_off_constraint_by_mixing_A2_pv_3_pp_3_co: - indicator_A2_pp_3
   - io_detector_A2 + y_A2_edge_connector_pv_3_pp_3_co >= -1
 edge_flow_ub_A2_pv_3_pp_3_ve: - 2 y_A2_edge_connector_pv_3_pp_3_co
   + f_A2_edge_connector_pv_3_pp_3_co <= 0
 edge_flow_lb_A2_pv_3_pp_3_ve: 2 y_A2_edge_connector_pv_3_pp_3_co
   + f_A2_edge_connector_pv_3_pp_3_co >= 0
 on_off_constraint_by_indicator_A2_pv_3_ac_3_co: - indicator_A2_ac_3
   + y_A2_edge_connector_pv_3_ac_3_co <= 0
 on_off_constraint_by_sum_actives_A2_pv_3_ac_3_co: - io_detector_A2
   + y_A2_edge_connector_pv_3_ac_3_co <= 0
 on_off_constraint_by_mixing_A2_pv_3_ac_3_co: - indicator_A2_ac_3
   - io_detector_A2 + y_A2_edge_connector_pv_3_ac_3_co >= -1
 edge_flow_ub_A2_pv_3_ac_3_ve: - 2 y_A2_edge_connector_pv_3_ac_3_co
   + f_A2_edge_connector_pv_3_ac_3_co <= 0
 edge_flow_lb_A2_pv_3_ac_3_ve: 2 y_A2_edge_connector_pv_3_ac_3_co
   + f_A2_edge_connector_pv_3_ac_3_co >= 0
 on_off_constraint_by_indicator_A2_nv_3_nn_3_co: - indicator_A2_nn_3
   + y_A2_edge_connector_nv_3_nn_3_co <= 0
 on_off_constraint_by_sum_actives_A2_nv_3_nn_3_co: - io_detector_A2
   + y_A2_edge_connector_nv_3_nn_3_co <= 0
 on_off_constraint_by_mixing_A2_nv_3_nn_3_co: - indicator_A2_nn_3
   - io_detector_A2 + y_A2_edge_connector_nv_3_nn_3_co >= -1
 edge_flow_ub_A2_nv_3_nn_3_ve: - 2 y_A2_edge_connector_nv_3_nn_3_co
   + f_A2_edge_connector_nv_3_nn_3_co <= 0
 edge_flow_lb_A2_nv_3_nn_3_ve: 2 y_A2_edge_connector_nv_3_nn_3_co
   + f_A2_edge_connector_nv_3_nn_3_co >= 0
 on_off_constraint_by_indicator_A2_nv_3_ac_3_co: - indicator_A2_ac_3
   + y_A2_edge_connector_nv_3_ac_3_co <= 0
 on_off_constraint_by_sum_actives_A2_nv_3_ac_3_co: - io_detector_A2
   + y_A2_edge_connector_nv_3_ac_3_co <= 0
 on_off_constraint_by_mixing_A2_nv_3_ac_3_co: - indicator_A2_ac_3
   - io_detector_A2 + y_A2_edge_connector_nv_3_ac_3_co >= -1
 edge_flow_ub_A2_nv_3_ac_3_ve: - 2 y_A2_edge_connector_nv_3_ac_3_co
   + f_A2_edge_connector_nv_3_ac_3_co <= 0
 edge_flow_lb_A2_nv_3_ac_3_ve: 2 y_A2_edge_connector_nv_3_ac_3_co
   + f_A2_edge_connector_nv_3_ac_3_co >= 0
 on_off_constraint_by_indicator_A2_pv_6_pp_6_co: - indicator_A2_pp_6
   + y_A2_edge_connector_pv_6_pp_6_co <= 0
 on_off_constraint_by_sum_actives_A2_pv_6_pp_6_co: - io_detector_A2
   + y_A2_edge_connector_pv_6_pp_6_co <= 0
 on_off_constraint_by_mixing_A2_pv_6_pp_6_co: - indicator_A2_pp_6
   - io_detector_A2 + y_A2_edge_connector_pv_6_pp_6_co >= -1
 edge_flow_ub_A2_pv_6_pp_6_ve: - 2 y_A2_edge_connector_pv_6_pp_6_co
   + f_A2_edge_connector_pv_6_pp_6_co <= 0
 edge_flow_lb_A2_pv_6_pp_6_ve: 2 y_A2_edge_connector_pv_6_pp_6_co
   + f_A2_edge_connector_pv_6_pp_6_co >= 0
 on_off_constraint_by_indicator_A2_pv_6_ac_6_co: - indicator_A2_ac_6
   + y_A2_edge_connector_pv_6_ac_6_co <= 0
 on_off_constraint_by_sum_actives_A2_pv_6_ac_6_co: - io_detector_A2
   + y_A2_edge_connector_pv_6_ac_6_co <= 0
 on_off_constraint_by_mixing_A2_pv_6_ac_6_co: - indicator_A2_ac_6
   - io_detector_A2 + y_A2_edge_connector_pv_6_ac_6_co >= -1
 edge_flow_ub_A2_pv_6_ac_6_ve: - 2 y_A2_edge_connector_pv_6_ac_6_co
   + f_A2_edge_connector_pv_6_ac_6_co <= 0
 edge_flow_lb_A2_pv_6_ac_6_ve: 2 y_A2_edge_connector_pv_6_ac_6_co
   + f_A2_edge_connector_pv_6_ac_6_co >= 0
 on_off_constraint_by_indicator_A2_nv_6_nn_6_co: - indicator_A2_nn_6
   + y_A2_edge_connector_nv_6_nn_6_co <= 0
 on_off_constraint_by_sum_actives_A2_nv_6_nn_6_co: - io_detector_A2
   + y_A2_edge_connector_nv_6_nn_6_co <= 0
 on_off_constraint_by_mixing_A2_nv_6_nn_6_co: - indicator_A2_nn_6
   - io_detector_A2 + y_A2_edge_connector_nv_6_nn_6_co >= -1
 edge_flow_ub_A2_nv_6_nn_6_ve: - 2 y_A2_edge_connector_nv_6_nn_6_co
   + f_A2_edge_connector_nv_6_nn_6_co <= 0
 edge_flow_lb_A2_nv_6_nn_6_ve: 2 y_A2_edge_connector_nv_6_nn_6_co
   + f_A2_edge_connector_nv_6_nn_6_co >= 0
 on_off_constraint_by_indicator_A2_nv_6_ac_6_co: - indicator_A2_ac_6
   + y_A2_edge_connector_nv_6_ac_6_co <= 0
 on_off_constraint_by_sum_actives_A2_nv_6_ac_6_co: - io_detector_A2
   + y_A2_edge_connector_nv_6_ac_6_co <= 0
 on_off_constraint_by_mixing_A2_nv_6_ac_6_co: - indicator_A2_ac_6
   - io_detector_A2 + y_A2_edge_connector_nv_6_ac_6_co >= -1
 edge_flow_ub_A2_nv_6_ac_6_ve: - 2 y_A2_edge_connector_nv_6_ac_6_co
   + f_A2_edge_connector_nv_6_ac_6_co <= 0
 edge_flow_lb_A2_nv_6_ac_6_ve: 2 y_A2_edge_connector_nv_6_ac_6_co
   + f_A2_edge_connector_nv_6_ac_6_co >= 0
 on_off_constraint_by_indicator_A2_pv_9_pp_9_co: - indicator_A2_pp_9
   + y_A2_edge_connector_pv_9_pp_9_co <= 0
 on_off_constraint_by_sum_actives_A2_pv_9_pp_9_co: - io_detector_A2
   + y_A2_edge_connector_pv_9_pp_9_co <= 0
 on_off_constraint_by_mixing_A2_pv_9_pp_9_co: - indicator_A2_pp_9
   - io_detector_A2 + y_A2_edge_connector_pv_9_pp_9_co >= -1
 edge_flow_ub_A2_pv_9_pp_9_ve: - 2 y_A2_edge_connector_pv_9_pp_9_co
   + f_A2_edge_connector_pv_9_pp_9_co <= 0
 edge_flow_lb_A2_pv_9_pp_9_ve: 2 y_A2_edge_connector_pv_9_pp_9_co
   + f_A2_edge_connector_pv_9_pp_9_co >= 0
 on_off_constraint_by_indicator_A2_pv_9_ac_9_co: - indicator_A2_ac_9
   + y_A2_edge_connector_pv_9_ac_9_co <= 0
 on_off_constraint_by_sum_actives_A2_pv_9_ac_9_co: - io_detector_A2
   + y_A2_edge_connector_pv_9_ac_9_co <= 0
 on_off_constraint_by_mixing_A2_pv_9_ac_9_co: - indicator_A2_ac_9
   - io_detector_A2 + y_A2_edge_connector_pv_9_ac_9_co >= -1
 edge_flow_ub_A2_pv_9_ac_9_ve: - 2 y_A2_edge_connector_pv_9_ac_9_co
   + f_A2_edge_connector_pv_9_ac_9_co <= 0
 edge_flow_lb_A2_pv_9_ac_9_ve: 2 y_A2_edge_connector_pv_9_ac_9_co
   + f_A2_edge_connector_pv_9_ac_9_co >= 0
 on_off_constraint_by_indicator_A2_nv_9_nn_9_co: - indicator_A2_nn_9
   + y_A2_edge_connector_nv_9_nn_9_co <= 0
 on_off_constraint_by_sum_actives_A2_nv_9_nn_9_co: - io_detector_A2
   + y_A2_edge_connector_nv_9_nn_9_co <= 0
 on_off_constraint_by_mixing_A2_nv_9_nn_9_co: - indicator_A2_nn_9
   - io_detector_A2 + y_A2_edge_connector_nv_9_nn_9_co >= -1
 edge_flow_ub_A2_nv_9_nn_9_ve: - 2 y_A2_edge_connector_nv_9_nn_9_co
   + f_A2_edge_connector_nv_9_nn_9_co <= 0
 edge_flow_lb_A2_nv_9_nn_9_ve: 2 y_A2_edge_connector_nv_9_nn_9_co
   + f_A2_edge_connector_nv_9_nn_9_co >= 0
 on_off_constraint_by_indicator_A2_nv_9_ac_9_co: - indicator_A2_ac_9
   + y_A2_edge_connector_nv_9_ac_9_co <= 0
 on_off_constraint_by_sum_actives_A2_nv_9_ac_9_co: - io_detector_A2
   + y_A2_edge_connector_nv_9_ac_9_co <= 0
 on_off_constraint_by_mixing_A2_nv_9_ac_9_co: - indicator_A2_ac_9
   - io_detector_A2 + y_A2_edge_connector_nv_9_ac_9_co >= -1
 edge_flow_ub_A2_nv_9_ac_9_ve: - 2 y_A2_edge_connector_nv_9_ac_9_co
   + f_A2_edge_connector_nv_9_ac_9_co <= 0
 edge_flow_lb_A2_nv_9_ac_9_ve: 2 y_A2_edge_connector_nv_9_ac_9_co
   + f_A2_edge_connector_nv_9_ac_9_co >= 0
 on_off_constraint_by_indicator_A2_pv_12_pp_12_co: - indicator_A2_pp_12
   + y_A2_edge_connector_pv_12_pp_12_co <= 0
 on_off_constraint_by_sum_actives_A2_pv_12_pp_12_co: - io_detector_A2
   + y_A2_edge_connector_pv_12_pp_12_co <= 0
 on_off_constraint_by_mixing_A2_pv_12_pp_12_co: - indicator_A2_pp_12
   - io_detector_A2 + y_A2_edge_connector_pv_12_pp_12_co >= -1
 edge_flow_ub_A2_pv_12_pp_12_ve: - 2 y_A2_edge_connector_pv_12_pp_12_co
   + f_A2_edge_connector_pv_12_pp_12_co <= 0
 edge_flow_lb_A2_pv_12_pp_12_ve: 2 y_A2_edge_connector_pv_12_pp_12_co
   + f_A2_edge_connector_pv_12_pp_12_co >= 0
 on_off_constraint_by_indicator_A2_pv_12_ac_12_co: - indicator_A2_ac_12
   + y_A2_edge_connector_pv_12_ac_12_co <= 0
 on_off_constraint_by_sum_actives_A2_pv_12_ac_12_co: - io_detector_A2
   + y_A2_edge_connector_pv_12_ac_12_co <= 0
 on_off_constraint_by_mixing_A2_pv_12_ac_12_co: - indicator_A2_ac_12
   - io_detector_A2 + y_A2_edge_connector_pv_12_ac_12_co >= -1
 edge_flow_ub_A2_pv_12_ac_12_ve: - 2 y_A2_edge_connector_pv_12_ac_12_co
   + f_A2_edge_connector_pv_12_ac_12_co <= 0
 edge_flow_lb_A2_pv_12_ac_12_ve: 2 y_A2_edge_connector_pv_12_ac_12_co
   + f_A2_edge_connector_pv_12_ac_12_co >= 0
 on_off_constraint_by_indicator_A2_nv_12_nn_12_co: - indicator_A2_nn_12
   + y_A2_edge_connector_nv_12_nn_12_co <= 0
 on_off_constraint_by_sum_actives_A2_nv_12_nn_12_co: - io_detector_A2
   + y_A2_edge_connector_nv_12_nn_12_co <= 0
 on_off_constraint_by_mixing_A2_nv_12_nn_12_co: - indicator_A2_nn_12
   - io_detector_A2 + y_A2_edge_connector_nv_12_nn_12_co >= -1
 edge_flow_ub_A2_nv_12_nn_12_ve: - 2 y_A2_edge_connector_nv_12_nn_12_co
   + f_A2_edge_connector_nv_12_nn_12_co <= 0
 edge_flow_lb_A2_nv_12_nn_12_ve: 2 y_A2_edge_connector_nv_12_nn_12_co
   + f_A2_edge_connector_nv_12_nn_12_co >= 0
 on_off_constraint_by_indicator_A2_nv_12_ac_12_co: - indicator_A2_ac_12
   + y_A2_edge_connector_nv_12_ac_12_co <= 0
 on_off_constraint_by_sum_actives_A2_nv_12_ac_12_co: - io_detector_A2
   + y_A2_edge_connector_nv_12_ac_12_co <= 0
 on_off_constraint_by_mixing_A2_nv_12_ac_12_co: - indicator_A2_ac_12
   - io_detector_A2 + y_A2_edge_connector_nv_12_ac_12_co >= -1
 edge_flow_ub_A2_nv_12_ac_12_ve: - 2 y_A2_edge_connector_nv_12_ac_12_co
   + f_A2_edge_connector_nv_12_ac_12_co <= 0
 edge_flow_lb_A2_nv_12_ac_12_ve: 2 y_A2_edge_connector_nv_12_ac_12_co
   + f_A2_edge_connector_nv_12_ac_12_co >= 0
 on_off_constraint_by_indicator_A2_pv_15_pp_15_co: - indicator_A2_pp_15
   + y_A2_edge_connector_pv_15_pp_15_co <= 0
 on_off_constraint_by_sum_actives_A2_pv_15_pp_15_co: - io_detector_A2
   + y_A2_edge_connector_pv_15_pp_15_co <= 0
 on_off_constraint_by_mixing_A2_pv_15_pp_15_co: - indicator_A2_pp_15
   - io_detector_A2 + y_A2_edge_connector_pv_15_pp_15_co >= -1
 edge_flow_ub_A2_pv_15_pp_15_ve: - 2 y_A2_edge_connector_pv_15_pp_15_co
   + f_A2_edge_connector_pv_15_pp_15_co <= 0
 edge_flow_lb_A2_pv_15_pp_15_ve: 2 y_A2_edge_connector_pv_15_pp_15_co
   + f_A2_edge_connector_pv_15_pp_15_co >= 0
 on_off_constraint_by_indicator_A2_pv_15_ac_15_co: - indicator_A2_ac_15
   + y_A2_edge_connector_pv_15_ac_15_co <= 0
 on_off_constraint_by_sum_actives_A2_pv_15_ac_15_co: - io_detector_A2
   + y_A2_edge_connector_pv_15_ac_15_co <= 0
 on_off_constraint_by_mixing_A2_pv_15_ac_15_co: - indicator_A2_ac_15
   - io_detector_A2 + y_A2_edge_connector_pv_15_ac_15_co >= -1
 edge_flow_ub_A2_pv_15_ac_15_ve: - 2 y_A2_edge_connector_pv_15_ac_15_co
   + f_A2_edge_connector_pv_15_ac_15_co <= 0
 edge_flow_lb_A2_pv_15_ac_15_ve: 2 y_A2_edge_connector_pv_15_ac_15_co
   + f_A2_edge_connector_pv_15_ac_15_co >= 0
 on_off_constraint_by_indicator_A2_nv_15_nn_15_co: - indicator_A2_nn_15
   + y_A2_edge_connector_nv_15_nn_15_co <= 0
 on_off_constraint_by_sum_actives_A2_nv_15_nn_15_co: - io_detector_A2
   + y_A2_edge_connector_nv_15_nn_15_co <= 0
 on_off_constraint_by_mixing_A2_nv_15_nn_15_co: - indicator_A2_nn_15
   - io_detector_A2 + y_A2_edge_connector_nv_15_nn_15_co >= -1
 edge_flow_ub_A2_nv_15_nn_15_ve: - 2 y_A2_edge_connector_nv_15_nn_15_co
   + f_A2_edge_connector_nv_15_nn_15_co <= 0
 edge_flow_lb_A2_nv_15_nn_15_ve: 2 y_A2_edge_connector_nv_15_nn_15_co
   + f_A2_edge_connector_nv_15_nn_15_co >= 0
 on_off_constraint_by_indicator_A2_nv_15_ac_15_co: - indicator_A2_ac_15
   + y_A2_edge_connector_nv_15_ac_15_co <= 0
 on_off_constraint_by_sum_actives_A2_nv_15_ac_15_co: - io_detector_A2
   + y_A2_edge_connector_nv_15_ac_15_co <= 0
 on_off_constraint_by_mixing_A2_nv_15_ac_15_co: - indicator_A2_ac_15
   - io_detector_A2 + y_A2_edge_connector_nv_15_ac_15_co >= -1
 edge_flow_ub_A2_nv_15_ac_15_ve: - 2 y_A2_edge_connector_nv_15_ac_15_co
   + f_A2_edge_connector_nv_15_ac_15_co <= 0
 edge_flow_lb_A2_nv_15_ac_15_ve: 2 y_A2_edge_connector_nv_15_ac_15_co
   + f_A2_edge_connector_nv_15_ac_15_co >= 0
 row_selection_on_off_rule1_A2_pp_3: - 2 indicator_A2_pp_3
   + c_mar_row_A2_pp_3_r[3] + c_mar_row_A2_pp_3_r[2] <= 0
 row_selection_on_off_rule2_A2_pp_3: - 2 io_detector_A2
   + c_mar_row_A2_pp_3_r[3] + c_mar_row_A2_pp_3_r[2] <= 0
 row_selection_on_off_rule3_A2_pp_3: - indicator_A2_pp_3 - io_detector_A2
   + c_mar_row_A2_pp_3_r[3] + c_mar_row_A2_pp_3_r[2] >= -1
 case_selection_on_off_rule1_A2_pp_3_3: - c_mar_row_A2_pp_3_r[3]
   + c_mar_row_A2_pp_3_3_case[0] <= 0
 case_selection_on_off_rule2_A2_pp_3_3: - c_mar_row_A2_pp_3_r[3]
   + c_mar_row_A2_pp_3_3_case[0] >= 0
 mar_constraint_A2_pp_3_3_left_edge: - t_A2_c_r[0,3]
   + c_mar_row_A2_pp_3_3_case[0] <= 0
 mar_constraint_A2_pp_3_3_real_metal: - t_A2_c_r[1,3]
   + c_mar_row_A2_pp_3_3_case[0] <= 0
 mar_constraint_A2_pp_3_3_right_edge: - t_eol_c_r[2,3] - t_A2_c_r[2,3]
   + c_mar_row_A2_pp_3_3_case[0] <= 0
 case_selection_on_off_rule1_A2_pp_3_2: - c_mar_row_A2_pp_3_r[2]
   + c_mar_row_A2_pp_3_2_case[0] <= 0
 case_selection_on_off_rule2_A2_pp_3_2: - c_mar_row_A2_pp_3_r[2]
   + c_mar_row_A2_pp_3_2_case[0] >= 0
 mar_constraint_A2_pp_3_2_left_edge: - t_A2_c_r[0,2]
   + c_mar_row_A2_pp_3_2_case[0] <= 0
 mar_constraint_A2_pp_3_2_real_metal: - t_A2_c_r[1,2]
   + c_mar_row_A2_pp_3_2_case[0] <= 0
 mar_constraint_A2_pp_3_2_right_edge: - t_eol_c_r[2,2] - t_A2_c_r[2,2]
   + c_mar_row_A2_pp_3_2_case[0] <= 0
 row_selection_on_off_rule1_A2_nn_3: - 2 indicator_A2_nn_3
   + c_mar_row_A2_nn_3_r[1] + c_mar_row_A2_nn_3_r[0] <= 0
 row_selection_on_off_rule2_A2_nn_3: - 2 io_detector_A2
   + c_mar_row_A2_nn_3_r[1] + c_mar_row_A2_nn_3_r[0] <= 0
 row_selection_on_off_rule3_A2_nn_3: - indicator_A2_nn_3 - io_detector_A2
   + c_mar_row_A2_nn_3_r[1] + c_mar_row_A2_nn_3_r[0] >= -1
 case_selection_on_off_rule1_A2_nn_3_1: - c_mar_row_A2_nn_3_r[1]
   + c_mar_row_A2_nn_3_1_case[0] <= 0
 case_selection_on_off_rule2_A2_nn_3_1: - c_mar_row_A2_nn_3_r[1]
   + c_mar_row_A2_nn_3_1_case[0] >= 0
 mar_constraint_A2_nn_3_1_left_edge: - t_A2_c_r[0,1]
   + c_mar_row_A2_nn_3_1_case[0] <= 0
 mar_constraint_A2_nn_3_1_real_metal: - t_A2_c_r[1,1]
   + c_mar_row_A2_nn_3_1_case[0] <= 0
 mar_constraint_A2_nn_3_1_right_edge: - t_eol_c_r[2,1] - t_A2_c_r[2,1]
   + c_mar_row_A2_nn_3_1_case[0] <= 0
 case_selection_on_off_rule1_A2_nn_3_0: - c_mar_row_A2_nn_3_r[0]
   + c_mar_row_A2_nn_3_0_case[0] <= 0
 case_selection_on_off_rule2_A2_nn_3_0: - c_mar_row_A2_nn_3_r[0]
   + c_mar_row_A2_nn_3_0_case[0] >= 0
 mar_constraint_A2_nn_3_0_left_edge: - t_A2_c_r[0,0]
   + c_mar_row_A2_nn_3_0_case[0] <= 0
 mar_constraint_A2_nn_3_0_real_metal: - t_A2_c_r[1,0]
   + c_mar_row_A2_nn_3_0_case[0] <= 0
 mar_constraint_A2_nn_3_0_right_edge: - t_eol_c_r[2,0] - t_A2_c_r[2,0]
   + c_mar_row_A2_nn_3_0_case[0] <= 0
 row_selection_on_off_rule1_A2_ac_3: - 4 indicator_A2_ac_3
   + c_mar_row_A2_ac_3_r[3] + c_mar_row_A2_ac_3_r[2]
   + c_mar_row_A2_ac_3_r[1] + c_mar_row_A2_ac_3_r[0] <= 0
 row_selection_on_off_rule2_A2_ac_3: - 4 io_detector_A2
   + c_mar_row_A2_ac_3_r[3] + c_mar_row_A2_ac_3_r[2]
   + c_mar_row_A2_ac_3_r[1] + c_mar_row_A2_ac_3_r[0] <= 0
 row_selection_on_off_rule3_A2_ac_3: - indicator_A2_ac_3 - io_detector_A2
   + c_mar_row_A2_ac_3_r[3] + c_mar_row_A2_ac_3_r[2]
   + c_mar_row_A2_ac_3_r[1] + c_mar_row_A2_ac_3_r[0] >= -1
 case_selection_on_off_rule1_A2_ac_3_3: - c_mar_row_A2_ac_3_r[3]
   + c_mar_row_A2_ac_3_3_case[0] <= 0
 case_selection_on_off_rule2_A2_ac_3_3: - c_mar_row_A2_ac_3_r[3]
   + c_mar_row_A2_ac_3_3_case[0] >= 0
 mar_constraint_A2_ac_3_3_left_edge: - t_A2_c_r[0,3]
   + c_mar_row_A2_ac_3_3_case[0] <= 0
 mar_constraint_A2_ac_3_3_real_metal: - t_A2_c_r[1,3]
   + c_mar_row_A2_ac_3_3_case[0] <= 0
 mar_constraint_A2_ac_3_3_right_edge: - t_eol_c_r[2,3] - t_A2_c_r[2,3]
   + c_mar_row_A2_ac_3_3_case[0] <= 0
 case_selection_on_off_rule1_A2_ac_3_2: - c_mar_row_A2_ac_3_r[2]
   + c_mar_row_A2_ac_3_2_case[0] <= 0
 case_selection_on_off_rule2_A2_ac_3_2: - c_mar_row_A2_ac_3_r[2]
   + c_mar_row_A2_ac_3_2_case[0] >= 0
 mar_constraint_A2_ac_3_2_left_edge: - t_A2_c_r[0,2]
   + c_mar_row_A2_ac_3_2_case[0] <= 0
 mar_constraint_A2_ac_3_2_real_metal: - t_A2_c_r[1,2]
   + c_mar_row_A2_ac_3_2_case[0] <= 0
 mar_constraint_A2_ac_3_2_right_edge: - t_eol_c_r[2,2] - t_A2_c_r[2,2]
   + c_mar_row_A2_ac_3_2_case[0] <= 0
 case_selection_on_off_rule1_A2_ac_3_1: - c_mar_row_A2_ac_3_r[1]
   + c_mar_row_A2_ac_3_1_case[0] <= 0
 case_selection_on_off_rule2_A2_ac_3_1: - c_mar_row_A2_ac_3_r[1]
   + c_mar_row_A2_ac_3_1_case[0] >= 0
 mar_constraint_A2_ac_3_1_left_edge: - t_A2_c_r[0,1]
   + c_mar_row_A2_ac_3_1_case[0] <= 0
 mar_constraint_A2_ac_3_1_real_metal: - t_A2_c_r[1,1]
   + c_mar_row_A2_ac_3_1_case[0] <= 0
 mar_constraint_A2_ac_3_1_right_edge: - t_eol_c_r[2,1] - t_A2_c_r[2,1]
   + c_mar_row_A2_ac_3_1_case[0] <= 0
 case_selection_on_off_rule1_A2_ac_3_0: - c_mar_row_A2_ac_3_r[0]
   + c_mar_row_A2_ac_3_0_case[0] <= 0
 case_selection_on_off_rule2_A2_ac_3_0: - c_mar_row_A2_ac_3_r[0]
   + c_mar_row_A2_ac_3_0_case[0] >= 0
 mar_constraint_A2_ac_3_0_left_edge: - t_A2_c_r[0,0]
   + c_mar_row_A2_ac_3_0_case[0] <= 0
 mar_constraint_A2_ac_3_0_real_metal: - t_A2_c_r[1,0]
   + c_mar_row_A2_ac_3_0_case[0] <= 0
 mar_constraint_A2_ac_3_0_right_edge: - t_eol_c_r[2,0] - t_A2_c_r[2,0]
   + c_mar_row_A2_ac_3_0_case[0] <= 0
 row_selection_on_off_rule1_A2_pp_6: - 2 indicator_A2_pp_6
   + c_mar_row_A2_pp_6_r[3] + c_mar_row_A2_pp_6_r[2] <= 0
 row_selection_on_off_rule2_A2_pp_6: - 2 io_detector_A2
   + c_mar_row_A2_pp_6_r[3] + c_mar_row_A2_pp_6_r[2] <= 0
 row_selection_on_off_rule3_A2_pp_6: - indicator_A2_pp_6 - io_detector_A2
   + c_mar_row_A2_pp_6_r[3] + c_mar_row_A2_pp_6_r[2] >= -1
 case_selection_on_off_rule1_A2_pp_6_3: - c_mar_row_A2_pp_6_r[3]
   + c_mar_row_A2_pp_6_3_case[0] + c_mar_row_A2_pp_6_3_case[1] <= 0
 case_selection_on_off_rule2_A2_pp_6_3: - c_mar_row_A2_pp_6_r[3]
   + c_mar_row_A2_pp_6_3_case[0] + c_mar_row_A2_pp_6_3_case[1] >= 0
 mar_constraint_A2_pp_6_3_left_edge: - t_A2_c_r[0,3]
   + c_mar_row_A2_pp_6_3_case[0] <= 0
 mar_constraint_A2_pp_6_3_real_metal: - t_A2_c_r[1,3]
   + c_mar_row_A2_pp_6_3_case[0] <= 0
 mar_constraint_A2_pp_6_3_right_edge: - t_eol_c_r[2,3] - t_A2_c_r[2,3]
   + c_mar_row_A2_pp_6_3_case[0] <= 0
 mar_constraint_A2_pp_6_3_left_edge: - t_eol_c_r[0,3] - t_A2_c_r[0,3]
   + c_mar_row_A2_pp_6_3_case[1] <= 0
 mar_constraint_A2_pp_6_3_real_metal: - t_A2_c_r[1,3]
   + c_mar_row_A2_pp_6_3_case[1] <= 0
 mar_constraint_A2_pp_6_3_real_metal: - t_A2_c_r[2,3]
   + c_mar_row_A2_pp_6_3_case[1] <= 0
 mar_constraint_A2_pp_6_3_right_edge: - t_eol_c_r[3,3] - t_A2_c_r[3,3]
   + c_mar_row_A2_pp_6_3_case[1] <= 0
 case_selection_on_off_rule1_A2_pp_6_2: - c_mar_row_A2_pp_6_r[2]
   + c_mar_row_A2_pp_6_2_case[0] + c_mar_row_A2_pp_6_2_case[1] <= 0
 case_selection_on_off_rule2_A2_pp_6_2: - c_mar_row_A2_pp_6_r[2]
   + c_mar_row_A2_pp_6_2_case[0] + c_mar_row_A2_pp_6_2_case[1] >= 0
 mar_constraint_A2_pp_6_2_left_edge: - t_A2_c_r[0,2]
   + c_mar_row_A2_pp_6_2_case[0] <= 0
 mar_constraint_A2_pp_6_2_real_metal: - t_A2_c_r[1,2]
   + c_mar_row_A2_pp_6_2_case[0] <= 0
 mar_constraint_A2_pp_6_2_right_edge: - t_eol_c_r[2,2] - t_A2_c_r[2,2]
   + c_mar_row_A2_pp_6_2_case[0] <= 0
 mar_constraint_A2_pp_6_2_left_edge: - t_eol_c_r[0,2] - t_A2_c_r[0,2]
   + c_mar_row_A2_pp_6_2_case[1] <= 0
 mar_constraint_A2_pp_6_2_real_metal: - t_A2_c_r[1,2]
   + c_mar_row_A2_pp_6_2_case[1] <= 0
 mar_constraint_A2_pp_6_2_real_metal: - t_A2_c_r[2,2]
   + c_mar_row_A2_pp_6_2_case[1] <= 0
 mar_constraint_A2_pp_6_2_right_edge: - t_eol_c_r[3,2] - t_A2_c_r[3,2]
   + c_mar_row_A2_pp_6_2_case[1] <= 0
 row_selection_on_off_rule1_A2_nn_6: - 2 indicator_A2_nn_6
   + c_mar_row_A2_nn_6_r[1] + c_mar_row_A2_nn_6_r[0] <= 0
 row_selection_on_off_rule2_A2_nn_6: - 2 io_detector_A2
   + c_mar_row_A2_nn_6_r[1] + c_mar_row_A2_nn_6_r[0] <= 0
 row_selection_on_off_rule3_A2_nn_6: - indicator_A2_nn_6 - io_detector_A2
   + c_mar_row_A2_nn_6_r[1] + c_mar_row_A2_nn_6_r[0] >= -1
 case_selection_on_off_rule1_A2_nn_6_1: - c_mar_row_A2_nn_6_r[1]
   + c_mar_row_A2_nn_6_1_case[0] + c_mar_row_A2_nn_6_1_case[1] <= 0
 case_selection_on_off_rule2_A2_nn_6_1: - c_mar_row_A2_nn_6_r[1]
   + c_mar_row_A2_nn_6_1_case[0] + c_mar_row_A2_nn_6_1_case[1] >= 0
 mar_constraint_A2_nn_6_1_left_edge: - t_A2_c_r[0,1]
   + c_mar_row_A2_nn_6_1_case[0] <= 0
 mar_constraint_A2_nn_6_1_real_metal: - t_A2_c_r[1,1]
   + c_mar_row_A2_nn_6_1_case[0] <= 0
 mar_constraint_A2_nn_6_1_right_edge: - t_eol_c_r[2,1] - t_A2_c_r[2,1]
   + c_mar_row_A2_nn_6_1_case[0] <= 0
 mar_constraint_A2_nn_6_1_left_edge: - t_eol_c_r[0,1] - t_A2_c_r[0,1]
   + c_mar_row_A2_nn_6_1_case[1] <= 0
 mar_constraint_A2_nn_6_1_real_metal: - t_A2_c_r[1,1]
   + c_mar_row_A2_nn_6_1_case[1] <= 0
 mar_constraint_A2_nn_6_1_real_metal: - t_A2_c_r[2,1]
   + c_mar_row_A2_nn_6_1_case[1] <= 0
 mar_constraint_A2_nn_6_1_right_edge: - t_eol_c_r[3,1] - t_A2_c_r[3,1]
   + c_mar_row_A2_nn_6_1_case[1] <= 0
 case_selection_on_off_rule1_A2_nn_6_0: - c_mar_row_A2_nn_6_r[0]
   + c_mar_row_A2_nn_6_0_case[0] + c_mar_row_A2_nn_6_0_case[1] <= 0
 case_selection_on_off_rule2_A2_nn_6_0: - c_mar_row_A2_nn_6_r[0]
   + c_mar_row_A2_nn_6_0_case[0] + c_mar_row_A2_nn_6_0_case[1] >= 0
 mar_constraint_A2_nn_6_0_left_edge: - t_A2_c_r[0,0]
   + c_mar_row_A2_nn_6_0_case[0] <= 0
 mar_constraint_A2_nn_6_0_real_metal: - t_A2_c_r[1,0]
   + c_mar_row_A2_nn_6_0_case[0] <= 0
 mar_constraint_A2_nn_6_0_right_edge: - t_eol_c_r[2,0] - t_A2_c_r[2,0]
   + c_mar_row_A2_nn_6_0_case[0] <= 0
 mar_constraint_A2_nn_6_0_left_edge: - t_eol_c_r[0,0] - t_A2_c_r[0,0]
   + c_mar_row_A2_nn_6_0_case[1] <= 0
 mar_constraint_A2_nn_6_0_real_metal: - t_A2_c_r[1,0]
   + c_mar_row_A2_nn_6_0_case[1] <= 0
 mar_constraint_A2_nn_6_0_real_metal: - t_A2_c_r[2,0]
   + c_mar_row_A2_nn_6_0_case[1] <= 0
 mar_constraint_A2_nn_6_0_right_edge: - t_eol_c_r[3,0] - t_A2_c_r[3,0]
   + c_mar_row_A2_nn_6_0_case[1] <= 0
 row_selection_on_off_rule1_A2_ac_6: - 4 indicator_A2_ac_6
   + c_mar_row_A2_ac_6_r[3] + c_mar_row_A2_ac_6_r[2]
   + c_mar_row_A2_ac_6_r[1] + c_mar_row_A2_ac_6_r[0] <= 0
 row_selection_on_off_rule2_A2_ac_6: - 4 io_detector_A2
   + c_mar_row_A2_ac_6_r[3] + c_mar_row_A2_ac_6_r[2]
   + c_mar_row_A2_ac_6_r[1] + c_mar_row_A2_ac_6_r[0] <= 0
 row_selection_on_off_rule3_A2_ac_6: - indicator_A2_ac_6 - io_detector_A2
   + c_mar_row_A2_ac_6_r[3] + c_mar_row_A2_ac_6_r[2]
   + c_mar_row_A2_ac_6_r[1] + c_mar_row_A2_ac_6_r[0] >= -1
 case_selection_on_off_rule1_A2_ac_6_3: - c_mar_row_A2_ac_6_r[3]
   + c_mar_row_A2_ac_6_3_case[0] + c_mar_row_A2_ac_6_3_case[1] <= 0
 case_selection_on_off_rule2_A2_ac_6_3: - c_mar_row_A2_ac_6_r[3]
   + c_mar_row_A2_ac_6_3_case[0] + c_mar_row_A2_ac_6_3_case[1] >= 0
 mar_constraint_A2_ac_6_3_left_edge: - t_A2_c_r[0,3]
   + c_mar_row_A2_ac_6_3_case[0] <= 0
 mar_constraint_A2_ac_6_3_real_metal: - t_A2_c_r[1,3]
   + c_mar_row_A2_ac_6_3_case[0] <= 0
 mar_constraint_A2_ac_6_3_right_edge: - t_eol_c_r[2,3] - t_A2_c_r[2,3]
   + c_mar_row_A2_ac_6_3_case[0] <= 0
 mar_constraint_A2_ac_6_3_left_edge: - t_eol_c_r[0,3] - t_A2_c_r[0,3]
   + c_mar_row_A2_ac_6_3_case[1] <= 0
 mar_constraint_A2_ac_6_3_real_metal: - t_A2_c_r[1,3]
   + c_mar_row_A2_ac_6_3_case[1] <= 0
 mar_constraint_A2_ac_6_3_real_metal: - t_A2_c_r[2,3]
   + c_mar_row_A2_ac_6_3_case[1] <= 0
 mar_constraint_A2_ac_6_3_right_edge: - t_eol_c_r[3,3] - t_A2_c_r[3,3]
   + c_mar_row_A2_ac_6_3_case[1] <= 0
 case_selection_on_off_rule1_A2_ac_6_2: - c_mar_row_A2_ac_6_r[2]
   + c_mar_row_A2_ac_6_2_case[0] + c_mar_row_A2_ac_6_2_case[1] <= 0
 case_selection_on_off_rule2_A2_ac_6_2: - c_mar_row_A2_ac_6_r[2]
   + c_mar_row_A2_ac_6_2_case[0] + c_mar_row_A2_ac_6_2_case[1] >= 0
 mar_constraint_A2_ac_6_2_left_edge: - t_A2_c_r[0,2]
   + c_mar_row_A2_ac_6_2_case[0] <= 0
 mar_constraint_A2_ac_6_2_real_metal: - t_A2_c_r[1,2]
   + c_mar_row_A2_ac_6_2_case[0] <= 0
 mar_constraint_A2_ac_6_2_right_edge: - t_eol_c_r[2,2] - t_A2_c_r[2,2]
   + c_mar_row_A2_ac_6_2_case[0] <= 0
 mar_constraint_A2_ac_6_2_left_edge: - t_eol_c_r[0,2] - t_A2_c_r[0,2]
   + c_mar_row_A2_ac_6_2_case[1] <= 0
 mar_constraint_A2_ac_6_2_real_metal: - t_A2_c_r[1,2]
   + c_mar_row_A2_ac_6_2_case[1] <= 0
 mar_constraint_A2_ac_6_2_real_metal: - t_A2_c_r[2,2]
   + c_mar_row_A2_ac_6_2_case[1] <= 0
 mar_constraint_A2_ac_6_2_right_edge: - t_eol_c_r[3,2] - t_A2_c_r[3,2]
   + c_mar_row_A2_ac_6_2_case[1] <= 0
 case_selection_on_off_rule1_A2_ac_6_1: - c_mar_row_A2_ac_6_r[1]
   + c_mar_row_A2_ac_6_1_case[0] + c_mar_row_A2_ac_6_1_case[1] <= 0
 case_selection_on_off_rule2_A2_ac_6_1: - c_mar_row_A2_ac_6_r[1]
   + c_mar_row_A2_ac_6_1_case[0] + c_mar_row_A2_ac_6_1_case[1] >= 0
 mar_constraint_A2_ac_6_1_left_edge: - t_A2_c_r[0,1]
   + c_mar_row_A2_ac_6_1_case[0] <= 0
 mar_constraint_A2_ac_6_1_real_metal: - t_A2_c_r[1,1]
   + c_mar_row_A2_ac_6_1_case[0] <= 0
 mar_constraint_A2_ac_6_1_right_edge: - t_eol_c_r[2,1] - t_A2_c_r[2,1]
   + c_mar_row_A2_ac_6_1_case[0] <= 0
 mar_constraint_A2_ac_6_1_left_edge: - t_eol_c_r[0,1] - t_A2_c_r[0,1]
   + c_mar_row_A2_ac_6_1_case[1] <= 0
 mar_constraint_A2_ac_6_1_real_metal: - t_A2_c_r[1,1]
   + c_mar_row_A2_ac_6_1_case[1] <= 0
 mar_constraint_A2_ac_6_1_real_metal: - t_A2_c_r[2,1]
   + c_mar_row_A2_ac_6_1_case[1] <= 0
 mar_constraint_A2_ac_6_1_right_edge: - t_eol_c_r[3,1] - t_A2_c_r[3,1]
   + c_mar_row_A2_ac_6_1_case[1] <= 0
 case_selection_on_off_rule1_A2_ac_6_0: - c_mar_row_A2_ac_6_r[0]
   + c_mar_row_A2_ac_6_0_case[0] + c_mar_row_A2_ac_6_0_case[1] <= 0
 case_selection_on_off_rule2_A2_ac_6_0: - c_mar_row_A2_ac_6_r[0]
   + c_mar_row_A2_ac_6_0_case[0] + c_mar_row_A2_ac_6_0_case[1] >= 0
 mar_constraint_A2_ac_6_0_left_edge: - t_A2_c_r[0,0]
   + c_mar_row_A2_ac_6_0_case[0] <= 0
 mar_constraint_A2_ac_6_0_real_metal: - t_A2_c_r[1,0]
   + c_mar_row_A2_ac_6_0_case[0] <= 0
 mar_constraint_A2_ac_6_0_right_edge: - t_eol_c_r[2,0] - t_A2_c_r[2,0]
   + c_mar_row_A2_ac_6_0_case[0] <= 0
 mar_constraint_A2_ac_6_0_left_edge: - t_eol_c_r[0,0] - t_A2_c_r[0,0]
   + c_mar_row_A2_ac_6_0_case[1] <= 0
 mar_constraint_A2_ac_6_0_real_metal: - t_A2_c_r[1,0]
   + c_mar_row_A2_ac_6_0_case[1] <= 0
 mar_constraint_A2_ac_6_0_real_metal: - t_A2_c_r[2,0]
   + c_mar_row_A2_ac_6_0_case[1] <= 0
 mar_constraint_A2_ac_6_0_right_edge: - t_eol_c_r[3,0] - t_A2_c_r[3,0]
   + c_mar_row_A2_ac_6_0_case[1] <= 0
 row_selection_on_off_rule1_A2_pp_9: - 2 indicator_A2_pp_9
   + c_mar_row_A2_pp_9_r[3] + c_mar_row_A2_pp_9_r[2] <= 0
 row_selection_on_off_rule2_A2_pp_9: - 2 io_detector_A2
   + c_mar_row_A2_pp_9_r[3] + c_mar_row_A2_pp_9_r[2] <= 0
 row_selection_on_off_rule3_A2_pp_9: - indicator_A2_pp_9 - io_detector_A2
   + c_mar_row_A2_pp_9_r[3] + c_mar_row_A2_pp_9_r[2] >= -1
 case_selection_on_off_rule1_A2_pp_9_3: - c_mar_row_A2_pp_9_r[3]
   + c_mar_row_A2_pp_9_3_case[0] + c_mar_row_A2_pp_9_3_case[1] <= 0
 case_selection_on_off_rule2_A2_pp_9_3: - c_mar_row_A2_pp_9_r[3]
   + c_mar_row_A2_pp_9_3_case[0] + c_mar_row_A2_pp_9_3_case[1] >= 0
 mar_constraint_A2_pp_9_3_left_edge: - t_eol_c_r[0,3] - t_A2_c_r[0,3]
   + c_mar_row_A2_pp_9_3_case[0] <= 0
 mar_constraint_A2_pp_9_3_real_metal: - t_A2_c_r[1,3]
   + c_mar_row_A2_pp_9_3_case[0] <= 0
 mar_constraint_A2_pp_9_3_real_metal: - t_A2_c_r[2,3]
   + c_mar_row_A2_pp_9_3_case[0] <= 0
 mar_constraint_A2_pp_9_3_right_edge: - t_eol_c_r[3,3] - t_A2_c_r[3,3]
   + c_mar_row_A2_pp_9_3_case[0] <= 0
 mar_constraint_A2_pp_9_3_left_edge: - t_eol_c_r[1,3] - t_A2_c_r[1,3]
   + c_mar_row_A2_pp_9_3_case[1] <= 0
 mar_constraint_A2_pp_9_3_real_metal: - t_A2_c_r[2,3]
   + c_mar_row_A2_pp_9_3_case[1] <= 0
 mar_constraint_A2_pp_9_3_real_metal: - t_A2_c_r[3,3]
   + c_mar_row_A2_pp_9_3_case[1] <= 0
 mar_constraint_A2_pp_9_3_right_edge: - t_eol_c_r[4,3] - t_A2_c_r[4,3]
   + c_mar_row_A2_pp_9_3_case[1] <= 0
 case_selection_on_off_rule1_A2_pp_9_2: - c_mar_row_A2_pp_9_r[2]
   + c_mar_row_A2_pp_9_2_case[0] + c_mar_row_A2_pp_9_2_case[1] <= 0
 case_selection_on_off_rule2_A2_pp_9_2: - c_mar_row_A2_pp_9_r[2]
   + c_mar_row_A2_pp_9_2_case[0] + c_mar_row_A2_pp_9_2_case[1] >= 0
 mar_constraint_A2_pp_9_2_left_edge: - t_eol_c_r[0,2] - t_A2_c_r[0,2]
   + c_mar_row_A2_pp_9_2_case[0] <= 0
 mar_constraint_A2_pp_9_2_real_metal: - t_A2_c_r[1,2]
   + c_mar_row_A2_pp_9_2_case[0] <= 0
 mar_constraint_A2_pp_9_2_real_metal: - t_A2_c_r[2,2]
   + c_mar_row_A2_pp_9_2_case[0] <= 0
 mar_constraint_A2_pp_9_2_right_edge: - t_eol_c_r[3,2] - t_A2_c_r[3,2]
   + c_mar_row_A2_pp_9_2_case[0] <= 0
 mar_constraint_A2_pp_9_2_left_edge: - t_eol_c_r[1,2] - t_A2_c_r[1,2]
   + c_mar_row_A2_pp_9_2_case[1] <= 0
 mar_constraint_A2_pp_9_2_real_metal: - t_A2_c_r[2,2]
   + c_mar_row_A2_pp_9_2_case[1] <= 0
 mar_constraint_A2_pp_9_2_real_metal: - t_A2_c_r[3,2]
   + c_mar_row_A2_pp_9_2_case[1] <= 0
 mar_constraint_A2_pp_9_2_right_edge: - t_eol_c_r[4,2] - t_A2_c_r[4,2]
   + c_mar_row_A2_pp_9_2_case[1] <= 0
 row_selection_on_off_rule1_A2_nn_9: - 2 indicator_A2_nn_9
   + c_mar_row_A2_nn_9_r[1] + c_mar_row_A2_nn_9_r[0] <= 0
 row_selection_on_off_rule2_A2_nn_9: - 2 io_detector_A2
   + c_mar_row_A2_nn_9_r[1] + c_mar_row_A2_nn_9_r[0] <= 0
 row_selection_on_off_rule3_A2_nn_9: - indicator_A2_nn_9 - io_detector_A2
   + c_mar_row_A2_nn_9_r[1] + c_mar_row_A2_nn_9_r[0] >= -1
 case_selection_on_off_rule1_A2_nn_9_1: - c_mar_row_A2_nn_9_r[1]
   + c_mar_row_A2_nn_9_1_case[0] + c_mar_row_A2_nn_9_1_case[1] <= 0
 case_selection_on_off_rule2_A2_nn_9_1: - c_mar_row_A2_nn_9_r[1]
   + c_mar_row_A2_nn_9_1_case[0] + c_mar_row_A2_nn_9_1_case[1] >= 0
 mar_constraint_A2_nn_9_1_left_edge: - t_eol_c_r[0,1] - t_A2_c_r[0,1]
   + c_mar_row_A2_nn_9_1_case[0] <= 0
 mar_constraint_A2_nn_9_1_real_metal: - t_A2_c_r[1,1]
   + c_mar_row_A2_nn_9_1_case[0] <= 0
 mar_constraint_A2_nn_9_1_real_metal: - t_A2_c_r[2,1]
   + c_mar_row_A2_nn_9_1_case[0] <= 0
 mar_constraint_A2_nn_9_1_right_edge: - t_eol_c_r[3,1] - t_A2_c_r[3,1]
   + c_mar_row_A2_nn_9_1_case[0] <= 0
 mar_constraint_A2_nn_9_1_left_edge: - t_eol_c_r[1,1] - t_A2_c_r[1,1]
   + c_mar_row_A2_nn_9_1_case[1] <= 0
 mar_constraint_A2_nn_9_1_real_metal: - t_A2_c_r[2,1]
   + c_mar_row_A2_nn_9_1_case[1] <= 0
 mar_constraint_A2_nn_9_1_real_metal: - t_A2_c_r[3,1]
   + c_mar_row_A2_nn_9_1_case[1] <= 0
 mar_constraint_A2_nn_9_1_right_edge: - t_eol_c_r[4,1] - t_A2_c_r[4,1]
   + c_mar_row_A2_nn_9_1_case[1] <= 0
 case_selection_on_off_rule1_A2_nn_9_0: - c_mar_row_A2_nn_9_r[0]
   + c_mar_row_A2_nn_9_0_case[0] + c_mar_row_A2_nn_9_0_case[1] <= 0
 case_selection_on_off_rule2_A2_nn_9_0: - c_mar_row_A2_nn_9_r[0]
   + c_mar_row_A2_nn_9_0_case[0] + c_mar_row_A2_nn_9_0_case[1] >= 0
 mar_constraint_A2_nn_9_0_left_edge: - t_eol_c_r[0,0] - t_A2_c_r[0,0]
   + c_mar_row_A2_nn_9_0_case[0] <= 0
 mar_constraint_A2_nn_9_0_real_metal: - t_A2_c_r[1,0]
   + c_mar_row_A2_nn_9_0_case[0] <= 0
 mar_constraint_A2_nn_9_0_real_metal: - t_A2_c_r[2,0]
   + c_mar_row_A2_nn_9_0_case[0] <= 0
 mar_constraint_A2_nn_9_0_right_edge: - t_eol_c_r[3,0] - t_A2_c_r[3,0]
   + c_mar_row_A2_nn_9_0_case[0] <= 0
 mar_constraint_A2_nn_9_0_left_edge: - t_eol_c_r[1,0] - t_A2_c_r[1,0]
   + c_mar_row_A2_nn_9_0_case[1] <= 0
 mar_constraint_A2_nn_9_0_real_metal: - t_A2_c_r[2,0]
   + c_mar_row_A2_nn_9_0_case[1] <= 0
 mar_constraint_A2_nn_9_0_real_metal: - t_A2_c_r[3,0]
   + c_mar_row_A2_nn_9_0_case[1] <= 0
 mar_constraint_A2_nn_9_0_right_edge: - t_eol_c_r[4,0] - t_A2_c_r[4,0]
   + c_mar_row_A2_nn_9_0_case[1] <= 0
 row_selection_on_off_rule1_A2_ac_9: - 4 indicator_A2_ac_9
   + c_mar_row_A2_ac_9_r[3] + c_mar_row_A2_ac_9_r[2]
   + c_mar_row_A2_ac_9_r[1] + c_mar_row_A2_ac_9_r[0] <= 0
 row_selection_on_off_rule2_A2_ac_9: - 4 io_detector_A2
   + c_mar_row_A2_ac_9_r[3] + c_mar_row_A2_ac_9_r[2]
   + c_mar_row_A2_ac_9_r[1] + c_mar_row_A2_ac_9_r[0] <= 0
 row_selection_on_off_rule3_A2_ac_9: - indicator_A2_ac_9 - io_detector_A2
   + c_mar_row_A2_ac_9_r[3] + c_mar_row_A2_ac_9_r[2]
   + c_mar_row_A2_ac_9_r[1] + c_mar_row_A2_ac_9_r[0] >= -1
 case_selection_on_off_rule1_A2_ac_9_3: - c_mar_row_A2_ac_9_r[3]
   + c_mar_row_A2_ac_9_3_case[0] + c_mar_row_A2_ac_9_3_case[1] <= 0
 case_selection_on_off_rule2_A2_ac_9_3: - c_mar_row_A2_ac_9_r[3]
   + c_mar_row_A2_ac_9_3_case[0] + c_mar_row_A2_ac_9_3_case[1] >= 0
 mar_constraint_A2_ac_9_3_left_edge: - t_eol_c_r[0,3] - t_A2_c_r[0,3]
   + c_mar_row_A2_ac_9_3_case[0] <= 0
 mar_constraint_A2_ac_9_3_real_metal: - t_A2_c_r[1,3]
   + c_mar_row_A2_ac_9_3_case[0] <= 0
 mar_constraint_A2_ac_9_3_real_metal: - t_A2_c_r[2,3]
   + c_mar_row_A2_ac_9_3_case[0] <= 0
 mar_constraint_A2_ac_9_3_right_edge: - t_eol_c_r[3,3] - t_A2_c_r[3,3]
   + c_mar_row_A2_ac_9_3_case[0] <= 0
 mar_constraint_A2_ac_9_3_left_edge: - t_eol_c_r[1,3] - t_A2_c_r[1,3]
   + c_mar_row_A2_ac_9_3_case[1] <= 0
 mar_constraint_A2_ac_9_3_real_metal: - t_A2_c_r[2,3]
   + c_mar_row_A2_ac_9_3_case[1] <= 0
 mar_constraint_A2_ac_9_3_real_metal: - t_A2_c_r[3,3]
   + c_mar_row_A2_ac_9_3_case[1] <= 0
 mar_constraint_A2_ac_9_3_right_edge: - t_eol_c_r[4,3] - t_A2_c_r[4,3]
   + c_mar_row_A2_ac_9_3_case[1] <= 0
 case_selection_on_off_rule1_A2_ac_9_2: - c_mar_row_A2_ac_9_r[2]
   + c_mar_row_A2_ac_9_2_case[0] + c_mar_row_A2_ac_9_2_case[1] <= 0
 case_selection_on_off_rule2_A2_ac_9_2: - c_mar_row_A2_ac_9_r[2]
   + c_mar_row_A2_ac_9_2_case[0] + c_mar_row_A2_ac_9_2_case[1] >= 0
 mar_constraint_A2_ac_9_2_left_edge: - t_eol_c_r[0,2] - t_A2_c_r[0,2]
   + c_mar_row_A2_ac_9_2_case[0] <= 0
 mar_constraint_A2_ac_9_2_real_metal: - t_A2_c_r[1,2]
   + c_mar_row_A2_ac_9_2_case[0] <= 0
 mar_constraint_A2_ac_9_2_real_metal: - t_A2_c_r[2,2]
   + c_mar_row_A2_ac_9_2_case[0] <= 0
 mar_constraint_A2_ac_9_2_right_edge: - t_eol_c_r[3,2] - t_A2_c_r[3,2]
   + c_mar_row_A2_ac_9_2_case[0] <= 0
 mar_constraint_A2_ac_9_2_left_edge: - t_eol_c_r[1,2] - t_A2_c_r[1,2]
   + c_mar_row_A2_ac_9_2_case[1] <= 0
 mar_constraint_A2_ac_9_2_real_metal: - t_A2_c_r[2,2]
   + c_mar_row_A2_ac_9_2_case[1] <= 0
 mar_constraint_A2_ac_9_2_real_metal: - t_A2_c_r[3,2]
   + c_mar_row_A2_ac_9_2_case[1] <= 0
 mar_constraint_A2_ac_9_2_right_edge: - t_eol_c_r[4,2] - t_A2_c_r[4,2]
   + c_mar_row_A2_ac_9_2_case[1] <= 0
 case_selection_on_off_rule1_A2_ac_9_1: - c_mar_row_A2_ac_9_r[1]
   + c_mar_row_A2_ac_9_1_case[0] + c_mar_row_A2_ac_9_1_case[1] <= 0
 case_selection_on_off_rule2_A2_ac_9_1: - c_mar_row_A2_ac_9_r[1]
   + c_mar_row_A2_ac_9_1_case[0] + c_mar_row_A2_ac_9_1_case[1] >= 0
 mar_constraint_A2_ac_9_1_left_edge: - t_eol_c_r[0,1] - t_A2_c_r[0,1]
   + c_mar_row_A2_ac_9_1_case[0] <= 0
 mar_constraint_A2_ac_9_1_real_metal: - t_A2_c_r[1,1]
   + c_mar_row_A2_ac_9_1_case[0] <= 0
 mar_constraint_A2_ac_9_1_real_metal: - t_A2_c_r[2,1]
   + c_mar_row_A2_ac_9_1_case[0] <= 0
 mar_constraint_A2_ac_9_1_right_edge: - t_eol_c_r[3,1] - t_A2_c_r[3,1]
   + c_mar_row_A2_ac_9_1_case[0] <= 0
 mar_constraint_A2_ac_9_1_left_edge: - t_eol_c_r[1,1] - t_A2_c_r[1,1]
   + c_mar_row_A2_ac_9_1_case[1] <= 0
 mar_constraint_A2_ac_9_1_real_metal: - t_A2_c_r[2,1]
   + c_mar_row_A2_ac_9_1_case[1] <= 0
 mar_constraint_A2_ac_9_1_real_metal: - t_A2_c_r[3,1]
   + c_mar_row_A2_ac_9_1_case[1] <= 0
 mar_constraint_A2_ac_9_1_right_edge: - t_eol_c_r[4,1] - t_A2_c_r[4,1]
   + c_mar_row_A2_ac_9_1_case[1] <= 0
 case_selection_on_off_rule1_A2_ac_9_0: - c_mar_row_A2_ac_9_r[0]
   + c_mar_row_A2_ac_9_0_case[0] + c_mar_row_A2_ac_9_0_case[1] <= 0
 case_selection_on_off_rule2_A2_ac_9_0: - c_mar_row_A2_ac_9_r[0]
   + c_mar_row_A2_ac_9_0_case[0] + c_mar_row_A2_ac_9_0_case[1] >= 0
 mar_constraint_A2_ac_9_0_left_edge: - t_eol_c_r[0,0] - t_A2_c_r[0,0]
   + c_mar_row_A2_ac_9_0_case[0] <= 0
 mar_constraint_A2_ac_9_0_real_metal: - t_A2_c_r[1,0]
   + c_mar_row_A2_ac_9_0_case[0] <= 0
 mar_constraint_A2_ac_9_0_real_metal: - t_A2_c_r[2,0]
   + c_mar_row_A2_ac_9_0_case[0] <= 0
 mar_constraint_A2_ac_9_0_right_edge: - t_eol_c_r[3,0] - t_A2_c_r[3,0]
   + c_mar_row_A2_ac_9_0_case[0] <= 0
 mar_constraint_A2_ac_9_0_left_edge: - t_eol_c_r[1,0] - t_A2_c_r[1,0]
   + c_mar_row_A2_ac_9_0_case[1] <= 0
 mar_constraint_A2_ac_9_0_real_metal: - t_A2_c_r[2,0]
   + c_mar_row_A2_ac_9_0_case[1] <= 0
 mar_constraint_A2_ac_9_0_real_metal: - t_A2_c_r[3,0]
   + c_mar_row_A2_ac_9_0_case[1] <= 0
 mar_constraint_A2_ac_9_0_right_edge: - t_eol_c_r[4,0] - t_A2_c_r[4,0]
   + c_mar_row_A2_ac_9_0_case[1] <= 0
 row_selection_on_off_rule1_A2_pp_12: - 2 indicator_A2_pp_12
   + c_mar_row_A2_pp_12_r[3] + c_mar_row_A2_pp_12_r[2] <= 0
 row_selection_on_off_rule2_A2_pp_12: - 2 io_detector_A2
   + c_mar_row_A2_pp_12_r[3] + c_mar_row_A2_pp_12_r[2] <= 0
 row_selection_on_off_rule3_A2_pp_12: - indicator_A2_pp_12 - io_detector_A2
   + c_mar_row_A2_pp_12_r[3] + c_mar_row_A2_pp_12_r[2] >= -1
 case_selection_on_off_rule1_A2_pp_12_3: - c_mar_row_A2_pp_12_r[3]
   + c_mar_row_A2_pp_12_3_case[0] + c_mar_row_A2_pp_12_3_case[1] <= 0
 case_selection_on_off_rule2_A2_pp_12_3: - c_mar_row_A2_pp_12_r[3]
   + c_mar_row_A2_pp_12_3_case[0] + c_mar_row_A2_pp_12_3_case[1] >= 0
 mar_constraint_A2_pp_12_3_left_edge: - t_eol_c_r[1,3] - t_A2_c_r[1,3]
   + c_mar_row_A2_pp_12_3_case[0] <= 0
 mar_constraint_A2_pp_12_3_real_metal: - t_A2_c_r[2,3]
   + c_mar_row_A2_pp_12_3_case[0] <= 0
 mar_constraint_A2_pp_12_3_real_metal: - t_A2_c_r[3,3]
   + c_mar_row_A2_pp_12_3_case[0] <= 0
 mar_constraint_A2_pp_12_3_right_edge: - t_eol_c_r[4,3] - t_A2_c_r[4,3]
   + c_mar_row_A2_pp_12_3_case[0] <= 0
 mar_constraint_A2_pp_12_3_left_edge: - t_eol_c_r[2,3] - t_A2_c_r[2,3]
   + c_mar_row_A2_pp_12_3_case[1] <= 0
 mar_constraint_A2_pp_12_3_real_metal: - t_A2_c_r[3,3]
   + c_mar_row_A2_pp_12_3_case[1] <= 0
 mar_constraint_A2_pp_12_3_right_edge: - t_A2_c_r[4,3]
   + c_mar_row_A2_pp_12_3_case[1] <= 0
 case_selection_on_off_rule1_A2_pp_12_2: - c_mar_row_A2_pp_12_r[2]
   + c_mar_row_A2_pp_12_2_case[0] + c_mar_row_A2_pp_12_2_case[1] <= 0
 case_selection_on_off_rule2_A2_pp_12_2: - c_mar_row_A2_pp_12_r[2]
   + c_mar_row_A2_pp_12_2_case[0] + c_mar_row_A2_pp_12_2_case[1] >= 0
 mar_constraint_A2_pp_12_2_left_edge: - t_eol_c_r[1,2] - t_A2_c_r[1,2]
   + c_mar_row_A2_pp_12_2_case[0] <= 0
 mar_constraint_A2_pp_12_2_real_metal: - t_A2_c_r[2,2]
   + c_mar_row_A2_pp_12_2_case[0] <= 0
 mar_constraint_A2_pp_12_2_real_metal: - t_A2_c_r[3,2]
   + c_mar_row_A2_pp_12_2_case[0] <= 0
 mar_constraint_A2_pp_12_2_right_edge: - t_eol_c_r[4,2] - t_A2_c_r[4,2]
   + c_mar_row_A2_pp_12_2_case[0] <= 0
 mar_constraint_A2_pp_12_2_left_edge: - t_eol_c_r[2,2] - t_A2_c_r[2,2]
   + c_mar_row_A2_pp_12_2_case[1] <= 0
 mar_constraint_A2_pp_12_2_real_metal: - t_A2_c_r[3,2]
   + c_mar_row_A2_pp_12_2_case[1] <= 0
 mar_constraint_A2_pp_12_2_right_edge: - t_A2_c_r[4,2]
   + c_mar_row_A2_pp_12_2_case[1] <= 0
 row_selection_on_off_rule1_A2_nn_12: - 2 indicator_A2_nn_12
   + c_mar_row_A2_nn_12_r[1] + c_mar_row_A2_nn_12_r[0] <= 0
 row_selection_on_off_rule2_A2_nn_12: - 2 io_detector_A2
   + c_mar_row_A2_nn_12_r[1] + c_mar_row_A2_nn_12_r[0] <= 0
 row_selection_on_off_rule3_A2_nn_12: - indicator_A2_nn_12 - io_detector_A2
   + c_mar_row_A2_nn_12_r[1] + c_mar_row_A2_nn_12_r[0] >= -1
 case_selection_on_off_rule1_A2_nn_12_1: - c_mar_row_A2_nn_12_r[1]
   + c_mar_row_A2_nn_12_1_case[0] + c_mar_row_A2_nn_12_1_case[1] <= 0
 case_selection_on_off_rule2_A2_nn_12_1: - c_mar_row_A2_nn_12_r[1]
   + c_mar_row_A2_nn_12_1_case[0] + c_mar_row_A2_nn_12_1_case[1] >= 0
 mar_constraint_A2_nn_12_1_left_edge: - t_eol_c_r[1,1] - t_A2_c_r[1,1]
   + c_mar_row_A2_nn_12_1_case[0] <= 0
 mar_constraint_A2_nn_12_1_real_metal: - t_A2_c_r[2,1]
   + c_mar_row_A2_nn_12_1_case[0] <= 0
 mar_constraint_A2_nn_12_1_real_metal: - t_A2_c_r[3,1]
   + c_mar_row_A2_nn_12_1_case[0] <= 0
 mar_constraint_A2_nn_12_1_right_edge: - t_eol_c_r[4,1] - t_A2_c_r[4,1]
   + c_mar_row_A2_nn_12_1_case[0] <= 0
 mar_constraint_A2_nn_12_1_left_edge: - t_eol_c_r[2,1] - t_A2_c_r[2,1]
   + c_mar_row_A2_nn_12_1_case[1] <= 0
 mar_constraint_A2_nn_12_1_real_metal: - t_A2_c_r[3,1]
   + c_mar_row_A2_nn_12_1_case[1] <= 0
 mar_constraint_A2_nn_12_1_right_edge: - t_A2_c_r[4,1]
   + c_mar_row_A2_nn_12_1_case[1] <= 0
 case_selection_on_off_rule1_A2_nn_12_0: - c_mar_row_A2_nn_12_r[0]
   + c_mar_row_A2_nn_12_0_case[0] + c_mar_row_A2_nn_12_0_case[1] <= 0
 case_selection_on_off_rule2_A2_nn_12_0: - c_mar_row_A2_nn_12_r[0]
   + c_mar_row_A2_nn_12_0_case[0] + c_mar_row_A2_nn_12_0_case[1] >= 0
 mar_constraint_A2_nn_12_0_left_edge: - t_eol_c_r[1,0] - t_A2_c_r[1,0]
   + c_mar_row_A2_nn_12_0_case[0] <= 0
 mar_constraint_A2_nn_12_0_real_metal: - t_A2_c_r[2,0]
   + c_mar_row_A2_nn_12_0_case[0] <= 0
 mar_constraint_A2_nn_12_0_real_metal: - t_A2_c_r[3,0]
   + c_mar_row_A2_nn_12_0_case[0] <= 0
 mar_constraint_A2_nn_12_0_right_edge: - t_eol_c_r[4,0] - t_A2_c_r[4,0]
   + c_mar_row_A2_nn_12_0_case[0] <= 0
 mar_constraint_A2_nn_12_0_left_edge: - t_eol_c_r[2,0] - t_A2_c_r[2,0]
   + c_mar_row_A2_nn_12_0_case[1] <= 0
 mar_constraint_A2_nn_12_0_real_metal: - t_A2_c_r[3,0]
   + c_mar_row_A2_nn_12_0_case[1] <= 0
 mar_constraint_A2_nn_12_0_right_edge: - t_A2_c_r[4,0]
   + c_mar_row_A2_nn_12_0_case[1] <= 0
 row_selection_on_off_rule1_A2_ac_12: - 4 indicator_A2_ac_12
   + c_mar_row_A2_ac_12_r[3] + c_mar_row_A2_ac_12_r[2]
   + c_mar_row_A2_ac_12_r[1] + c_mar_row_A2_ac_12_r[0] <= 0
 row_selection_on_off_rule2_A2_ac_12: - 4 io_detector_A2
   + c_mar_row_A2_ac_12_r[3] + c_mar_row_A2_ac_12_r[2]
   + c_mar_row_A2_ac_12_r[1] + c_mar_row_A2_ac_12_r[0] <= 0
 row_selection_on_off_rule3_A2_ac_12: - indicator_A2_ac_12 - io_detector_A2
   + c_mar_row_A2_ac_12_r[3] + c_mar_row_A2_ac_12_r[2]
   + c_mar_row_A2_ac_12_r[1] + c_mar_row_A2_ac_12_r[0] >= -1
 case_selection_on_off_rule1_A2_ac_12_3: - c_mar_row_A2_ac_12_r[3]
   + c_mar_row_A2_ac_12_3_case[0] + c_mar_row_A2_ac_12_3_case[1] <= 0
 case_selection_on_off_rule2_A2_ac_12_3: - c_mar_row_A2_ac_12_r[3]
   + c_mar_row_A2_ac_12_3_case[0] + c_mar_row_A2_ac_12_3_case[1] >= 0
 mar_constraint_A2_ac_12_3_left_edge: - t_eol_c_r[1,3] - t_A2_c_r[1,3]
   + c_mar_row_A2_ac_12_3_case[0] <= 0
 mar_constraint_A2_ac_12_3_real_metal: - t_A2_c_r[2,3]
   + c_mar_row_A2_ac_12_3_case[0] <= 0
 mar_constraint_A2_ac_12_3_real_metal: - t_A2_c_r[3,3]
   + c_mar_row_A2_ac_12_3_case[0] <= 0
 mar_constraint_A2_ac_12_3_right_edge: - t_eol_c_r[4,3] - t_A2_c_r[4,3]
   + c_mar_row_A2_ac_12_3_case[0] <= 0
 mar_constraint_A2_ac_12_3_left_edge: - t_eol_c_r[2,3] - t_A2_c_r[2,3]
   + c_mar_row_A2_ac_12_3_case[1] <= 0
 mar_constraint_A2_ac_12_3_real_metal: - t_A2_c_r[3,3]
   + c_mar_row_A2_ac_12_3_case[1] <= 0
 mar_constraint_A2_ac_12_3_right_edge: - t_A2_c_r[4,3]
   + c_mar_row_A2_ac_12_3_case[1] <= 0
 case_selection_on_off_rule1_A2_ac_12_2: - c_mar_row_A2_ac_12_r[2]
   + c_mar_row_A2_ac_12_2_case[0] + c_mar_row_A2_ac_12_2_case[1] <= 0
 case_selection_on_off_rule2_A2_ac_12_2: - c_mar_row_A2_ac_12_r[2]
   + c_mar_row_A2_ac_12_2_case[0] + c_mar_row_A2_ac_12_2_case[1] >= 0
 mar_constraint_A2_ac_12_2_left_edge: - t_eol_c_r[1,2] - t_A2_c_r[1,2]
   + c_mar_row_A2_ac_12_2_case[0] <= 0
 mar_constraint_A2_ac_12_2_real_metal: - t_A2_c_r[2,2]
   + c_mar_row_A2_ac_12_2_case[0] <= 0
 mar_constraint_A2_ac_12_2_real_metal: - t_A2_c_r[3,2]
   + c_mar_row_A2_ac_12_2_case[0] <= 0
 mar_constraint_A2_ac_12_2_right_edge: - t_eol_c_r[4,2] - t_A2_c_r[4,2]
   + c_mar_row_A2_ac_12_2_case[0] <= 0
 mar_constraint_A2_ac_12_2_left_edge: - t_eol_c_r[2,2] - t_A2_c_r[2,2]
   + c_mar_row_A2_ac_12_2_case[1] <= 0
 mar_constraint_A2_ac_12_2_real_metal: - t_A2_c_r[3,2]
   + c_mar_row_A2_ac_12_2_case[1] <= 0
 mar_constraint_A2_ac_12_2_right_edge: - t_A2_c_r[4,2]
   + c_mar_row_A2_ac_12_2_case[1] <= 0
 case_selection_on_off_rule1_A2_ac_12_1: - c_mar_row_A2_ac_12_r[1]
   + c_mar_row_A2_ac_12_1_case[0] + c_mar_row_A2_ac_12_1_case[1] <= 0
 case_selection_on_off_rule2_A2_ac_12_1: - c_mar_row_A2_ac_12_r[1]
   + c_mar_row_A2_ac_12_1_case[0] + c_mar_row_A2_ac_12_1_case[1] >= 0
 mar_constraint_A2_ac_12_1_left_edge: - t_eol_c_r[1,1] - t_A2_c_r[1,1]
   + c_mar_row_A2_ac_12_1_case[0] <= 0
 mar_constraint_A2_ac_12_1_real_metal: - t_A2_c_r[2,1]
   + c_mar_row_A2_ac_12_1_case[0] <= 0
 mar_constraint_A2_ac_12_1_real_metal: - t_A2_c_r[3,1]
   + c_mar_row_A2_ac_12_1_case[0] <= 0
 mar_constraint_A2_ac_12_1_right_edge: - t_eol_c_r[4,1] - t_A2_c_r[4,1]
   + c_mar_row_A2_ac_12_1_case[0] <= 0
 mar_constraint_A2_ac_12_1_left_edge: - t_eol_c_r[2,1] - t_A2_c_r[2,1]
   + c_mar_row_A2_ac_12_1_case[1] <= 0
 mar_constraint_A2_ac_12_1_real_metal: - t_A2_c_r[3,1]
   + c_mar_row_A2_ac_12_1_case[1] <= 0
 mar_constraint_A2_ac_12_1_right_edge: - t_A2_c_r[4,1]
   + c_mar_row_A2_ac_12_1_case[1] <= 0
 case_selection_on_off_rule1_A2_ac_12_0: - c_mar_row_A2_ac_12_r[0]
   + c_mar_row_A2_ac_12_0_case[0] + c_mar_row_A2_ac_12_0_case[1] <= 0
 case_selection_on_off_rule2_A2_ac_12_0: - c_mar_row_A2_ac_12_r[0]
   + c_mar_row_A2_ac_12_0_case[0] + c_mar_row_A2_ac_12_0_case[1] >= 0
 mar_constraint_A2_ac_12_0_left_edge: - t_eol_c_r[1,0] - t_A2_c_r[1,0]
   + c_mar_row_A2_ac_12_0_case[0] <= 0
 mar_constraint_A2_ac_12_0_real_metal: - t_A2_c_r[2,0]
   + c_mar_row_A2_ac_12_0_case[0] <= 0
 mar_constraint_A2_ac_12_0_real_metal: - t_A2_c_r[3,0]
   + c_mar_row_A2_ac_12_0_case[0] <= 0
 mar_constraint_A2_ac_12_0_right_edge: - t_eol_c_r[4,0] - t_A2_c_r[4,0]
   + c_mar_row_A2_ac_12_0_case[0] <= 0
 mar_constraint_A2_ac_12_0_left_edge: - t_eol_c_r[2,0] - t_A2_c_r[2,0]
   + c_mar_row_A2_ac_12_0_case[1] <= 0
 mar_constraint_A2_ac_12_0_real_metal: - t_A2_c_r[3,0]
   + c_mar_row_A2_ac_12_0_case[1] <= 0
 mar_constraint_A2_ac_12_0_right_edge: - t_A2_c_r[4,0]
   + c_mar_row_A2_ac_12_0_case[1] <= 0
 row_selection_on_off_rule1_A2_pp_15: - 2 indicator_A2_pp_15
   + c_mar_row_A2_pp_15_r[3] + c_mar_row_A2_pp_15_r[2] <= 0
 row_selection_on_off_rule2_A2_pp_15: - 2 io_detector_A2
   + c_mar_row_A2_pp_15_r[3] + c_mar_row_A2_pp_15_r[2] <= 0
 row_selection_on_off_rule3_A2_pp_15: - indicator_A2_pp_15 - io_detector_A2
   + c_mar_row_A2_pp_15_r[3] + c_mar_row_A2_pp_15_r[2] >= -1
 case_selection_on_off_rule1_A2_pp_15_3: - c_mar_row_A2_pp_15_r[3]
   + c_mar_row_A2_pp_15_3_case[0] <= 0
 case_selection_on_off_rule2_A2_pp_15_3: - c_mar_row_A2_pp_15_r[3]
   + c_mar_row_A2_pp_15_3_case[0] >= 0
 mar_constraint_A2_pp_15_3_left_edge: - t_eol_c_r[2,3] - t_A2_c_r[2,3]
   + c_mar_row_A2_pp_15_3_case[0] <= 0
 mar_constraint_A2_pp_15_3_real_metal: - t_A2_c_r[3,3]
   + c_mar_row_A2_pp_15_3_case[0] <= 0
 mar_constraint_A2_pp_15_3_right_edge: - t_A2_c_r[4,3]
   + c_mar_row_A2_pp_15_3_case[0] <= 0
 case_selection_on_off_rule1_A2_pp_15_2: - c_mar_row_A2_pp_15_r[2]
   + c_mar_row_A2_pp_15_2_case[0] <= 0
 case_selection_on_off_rule2_A2_pp_15_2: - c_mar_row_A2_pp_15_r[2]
   + c_mar_row_A2_pp_15_2_case[0] >= 0
 mar_constraint_A2_pp_15_2_left_edge: - t_eol_c_r[2,2] - t_A2_c_r[2,2]
   + c_mar_row_A2_pp_15_2_case[0] <= 0
 mar_constraint_A2_pp_15_2_real_metal: - t_A2_c_r[3,2]
   + c_mar_row_A2_pp_15_2_case[0] <= 0
 mar_constraint_A2_pp_15_2_right_edge: - t_A2_c_r[4,2]
   + c_mar_row_A2_pp_15_2_case[0] <= 0
 row_selection_on_off_rule1_A2_nn_15: - 2 indicator_A2_nn_15
   + c_mar_row_A2_nn_15_r[1] + c_mar_row_A2_nn_15_r[0] <= 0
 row_selection_on_off_rule2_A2_nn_15: - 2 io_detector_A2
   + c_mar_row_A2_nn_15_r[1] + c_mar_row_A2_nn_15_r[0] <= 0
 row_selection_on_off_rule3_A2_nn_15: - indicator_A2_nn_15 - io_detector_A2
   + c_mar_row_A2_nn_15_r[1] + c_mar_row_A2_nn_15_r[0] >= -1
 case_selection_on_off_rule1_A2_nn_15_1: - c_mar_row_A2_nn_15_r[1]
   + c_mar_row_A2_nn_15_1_case[0] <= 0
 case_selection_on_off_rule2_A2_nn_15_1: - c_mar_row_A2_nn_15_r[1]
   + c_mar_row_A2_nn_15_1_case[0] >= 0
 mar_constraint_A2_nn_15_1_left_edge: - t_eol_c_r[2,1] - t_A2_c_r[2,1]
   + c_mar_row_A2_nn_15_1_case[0] <= 0
 mar_constraint_A2_nn_15_1_real_metal: - t_A2_c_r[3,1]
   + c_mar_row_A2_nn_15_1_case[0] <= 0
 mar_constraint_A2_nn_15_1_right_edge: - t_A2_c_r[4,1]
   + c_mar_row_A2_nn_15_1_case[0] <= 0
 case_selection_on_off_rule1_A2_nn_15_0: - c_mar_row_A2_nn_15_r[0]
   + c_mar_row_A2_nn_15_0_case[0] <= 0
 case_selection_on_off_rule2_A2_nn_15_0: - c_mar_row_A2_nn_15_r[0]
   + c_mar_row_A2_nn_15_0_case[0] >= 0
 mar_constraint_A2_nn_15_0_left_edge: - t_eol_c_r[2,0] - t_A2_c_r[2,0]
   + c_mar_row_A2_nn_15_0_case[0] <= 0
 mar_constraint_A2_nn_15_0_real_metal: - t_A2_c_r[3,0]
   + c_mar_row_A2_nn_15_0_case[0] <= 0
 mar_constraint_A2_nn_15_0_right_edge: - t_A2_c_r[4,0]
   + c_mar_row_A2_nn_15_0_case[0] <= 0
 row_selection_on_off_rule1_A2_ac_15: - 4 indicator_A2_ac_15
   + c_mar_row_A2_ac_15_r[3] + c_mar_row_A2_ac_15_r[2]
   + c_mar_row_A2_ac_15_r[1] + c_mar_row_A2_ac_15_r[0] <= 0
 row_selection_on_off_rule2_A2_ac_15: - 4 io_detector_A2
   + c_mar_row_A2_ac_15_r[3] + c_mar_row_A2_ac_15_r[2]
   + c_mar_row_A2_ac_15_r[1] + c_mar_row_A2_ac_15_r[0] <= 0
 row_selection_on_off_rule3_A2_ac_15: - indicator_A2_ac_15 - io_detector_A2
   + c_mar_row_A2_ac_15_r[3] + c_mar_row_A2_ac_15_r[2]
   + c_mar_row_A2_ac_15_r[1] + c_mar_row_A2_ac_15_r[0] >= -1
 case_selection_on_off_rule1_A2_ac_15_3: - c_mar_row_A2_ac_15_r[3]
   + c_mar_row_A2_ac_15_3_case[0] <= 0
 case_selection_on_off_rule2_A2_ac_15_3: - c_mar_row_A2_ac_15_r[3]
   + c_mar_row_A2_ac_15_3_case[0] >= 0
 mar_constraint_A2_ac_15_3_left_edge: - t_eol_c_r[2,3] - t_A2_c_r[2,3]
   + c_mar_row_A2_ac_15_3_case[0] <= 0
 mar_constraint_A2_ac_15_3_real_metal: - t_A2_c_r[3,3]
   + c_mar_row_A2_ac_15_3_case[0] <= 0
 mar_constraint_A2_ac_15_3_right_edge: - t_A2_c_r[4,3]
   + c_mar_row_A2_ac_15_3_case[0] <= 0
 case_selection_on_off_rule1_A2_ac_15_2: - c_mar_row_A2_ac_15_r[2]
   + c_mar_row_A2_ac_15_2_case[0] <= 0
 case_selection_on_off_rule2_A2_ac_15_2: - c_mar_row_A2_ac_15_r[2]
   + c_mar_row_A2_ac_15_2_case[0] >= 0
 mar_constraint_A2_ac_15_2_left_edge: - t_eol_c_r[2,2] - t_A2_c_r[2,2]
   + c_mar_row_A2_ac_15_2_case[0] <= 0
 mar_constraint_A2_ac_15_2_real_metal: - t_A2_c_r[3,2]
   + c_mar_row_A2_ac_15_2_case[0] <= 0
 mar_constraint_A2_ac_15_2_right_edge: - t_A2_c_r[4,2]
   + c_mar_row_A2_ac_15_2_case[0] <= 0
 case_selection_on_off_rule1_A2_ac_15_1: - c_mar_row_A2_ac_15_r[1]
   + c_mar_row_A2_ac_15_1_case[0] <= 0
 case_selection_on_off_rule2_A2_ac_15_1: - c_mar_row_A2_ac_15_r[1]
   + c_mar_row_A2_ac_15_1_case[0] >= 0
 mar_constraint_A2_ac_15_1_left_edge: - t_eol_c_r[2,1] - t_A2_c_r[2,1]
   + c_mar_row_A2_ac_15_1_case[0] <= 0
 mar_constraint_A2_ac_15_1_real_metal: - t_A2_c_r[3,1]
   + c_mar_row_A2_ac_15_1_case[0] <= 0
 mar_constraint_A2_ac_15_1_right_edge: - t_A2_c_r[4,1]
   + c_mar_row_A2_ac_15_1_case[0] <= 0
 case_selection_on_off_rule1_A2_ac_15_0: - c_mar_row_A2_ac_15_r[0]
   + c_mar_row_A2_ac_15_0_case[0] <= 0
 case_selection_on_off_rule2_A2_ac_15_0: - c_mar_row_A2_ac_15_r[0]
   + c_mar_row_A2_ac_15_0_case[0] >= 0
 mar_constraint_A2_ac_15_0_left_edge: - t_eol_c_r[2,0] - t_A2_c_r[2,0]
   + c_mar_row_A2_ac_15_0_case[0] <= 0
 mar_constraint_A2_ac_15_0_real_metal: - t_A2_c_r[3,0]
   + c_mar_row_A2_ac_15_0_case[0] <= 0
 mar_constraint_A2_ac_15_0_right_edge: - t_A2_c_r[4,0]
   + c_mar_row_A2_ac_15_0_case[0] <= 0
 global_zero_constraint_A2_pv_3_pv_4_3: - indicator_A2_pp_3
   - indicator_A2_nn_3 - indicator_A2_ac_3 - indicator_A2_pp_6
   - indicator_A2_nn_6 - indicator_A2_ac_6 - indicator_A2_pp_9
   - indicator_A2_nn_9 - indicator_A2_ac_9 - indicator_A2_pp_12
   - indicator_A2_nn_12 - indicator_A2_ac_12 - indicator_A2_pp_15
   - indicator_A2_nn_15 - indicator_A2_ac_15 + y_A2_edge_pv_3_pv_4_3 <= -1
 active_c_ge_min_indicator_min_bbox_A2_pv_3_pv_4_3: min_indicator_A2
   + 5 y_A2_edge_pv_3_pv_4_3 <= 6
 active_c_ge_max_bbox_min_bbox_A2_pv_3_pv_4_3: - max_bbox_A2
   + 5 y_A2_edge_pv_3_pv_4_3 <= 4
 edge_flow_ub_A2_pv_3_pv_4_3: - 2 y_A2_edge_pv_3_pv_4_3
   + f_A2_edge_pv_3_pv_4_3 <= 0
 edge_flow_lb_A2_pv_3_pv_4_3: 2 y_A2_edge_pv_3_pv_4_3
   + f_A2_edge_pv_3_pv_4_3 >= 0
 global_zero_constraint_A2_pv_3_pv_4_2: - indicator_A2_pp_3
   - indicator_A2_nn_3 - indicator_A2_ac_3 - indicator_A2_pp_6
   - indicator_A2_nn_6 - indicator_A2_ac_6 - indicator_A2_pp_9
   - indicator_A2_nn_9 - indicator_A2_ac_9 - indicator_A2_pp_12
   - indicator_A2_nn_12 - indicator_A2_ac_12 - indicator_A2_pp_15
   - indicator_A2_nn_15 - indicator_A2_ac_15 + y_A2_edge_pv_3_pv_4_2 <= -1
 active_c_ge_min_indicator_min_bbox_A2_pv_3_pv_4_2: min_indicator_A2
   + 5 y_A2_edge_pv_3_pv_4_2 <= 6
 active_c_ge_max_bbox_min_bbox_A2_pv_3_pv_4_2: - max_bbox_A2
   + 5 y_A2_edge_pv_3_pv_4_2 <= 4
 edge_flow_ub_A2_pv_3_pv_4_2: - 2 y_A2_edge_pv_3_pv_4_2
   + f_A2_edge_pv_3_pv_4_2 <= 0
 edge_flow_lb_A2_pv_3_pv_4_2: 2 y_A2_edge_pv_3_pv_4_2
   + f_A2_edge_pv_3_pv_4_2 >= 0
 global_zero_constraint_A2_nv_3_nv_4_1: - indicator_A2_pp_3
   - indicator_A2_nn_3 - indicator_A2_ac_3 - indicator_A2_pp_6
   - indicator_A2_nn_6 - indicator_A2_ac_6 - indicator_A2_pp_9
   - indicator_A2_nn_9 - indicator_A2_ac_9 - indicator_A2_pp_12
   - indicator_A2_nn_12 - indicator_A2_ac_12 - indicator_A2_pp_15
   - indicator_A2_nn_15 - indicator_A2_ac_15 + y_A2_edge_nv_3_nv_4_1 <= -1
 active_c_ge_min_indicator_min_bbox_A2_nv_3_nv_4_1: min_indicator_A2
   + 5 y_A2_edge_nv_3_nv_4_1 <= 6
 active_c_ge_max_bbox_min_bbox_A2_nv_3_nv_4_1: - max_bbox_A2
   + 5 y_A2_edge_nv_3_nv_4_1 <= 4
 edge_flow_ub_A2_nv_3_nv_4_1: - 2 y_A2_edge_nv_3_nv_4_1
   + f_A2_edge_nv_3_nv_4_1 <= 0
 edge_flow_lb_A2_nv_3_nv_4_1: 2 y_A2_edge_nv_3_nv_4_1
   + f_A2_edge_nv_3_nv_4_1 >= 0
 global_zero_constraint_A2_nv_3_nv_4_0: - indicator_A2_pp_3
   - indicator_A2_nn_3 - indicator_A2_ac_3 - indicator_A2_pp_6
   - indicator_A2_nn_6 - indicator_A2_ac_6 - indicator_A2_pp_9
   - indicator_A2_nn_9 - indicator_A2_ac_9 - indicator_A2_pp_12
   - indicator_A2_nn_12 - indicator_A2_ac_12 - indicator_A2_pp_15
   - indicator_A2_nn_15 - indicator_A2_ac_15 + y_A2_edge_nv_3_nv_4_0 <= -1
 active_c_ge_min_indicator_min_bbox_A2_nv_3_nv_4_0: min_indicator_A2
   + 5 y_A2_edge_nv_3_nv_4_0 <= 6
 active_c_ge_max_bbox_min_bbox_A2_nv_3_nv_4_0: - max_bbox_A2
   + 5 y_A2_edge_nv_3_nv_4_0 <= 4
 edge_flow_ub_A2_nv_3_nv_4_0: - 2 y_A2_edge_nv_3_nv_4_0
   + f_A2_edge_nv_3_nv_4_0 <= 0
 edge_flow_lb_A2_nv_3_nv_4_0: 2 y_A2_edge_nv_3_nv_4_0
   + f_A2_edge_nv_3_nv_4_0 >= 0
 global_zero_constraint_A2_pv_4_pv_6_3: - indicator_A2_pp_3
   - indicator_A2_nn_3 - indicator_A2_ac_3 - indicator_A2_pp_6
   - indicator_A2_nn_6 - indicator_A2_ac_6 - indicator_A2_pp_9
   - indicator_A2_nn_9 - indicator_A2_ac_9 - indicator_A2_pp_12
   - indicator_A2_nn_12 - indicator_A2_ac_12 - indicator_A2_pp_15
   - indicator_A2_nn_15 - indicator_A2_ac_15 + y_A2_edge_pv_4_pv_6_3 <= -1
 active_c_ge_min_indicator_min_bbox_A2_pv_4_pv_6_3: min_indicator_A2
   + 5 y_A2_edge_pv_4_pv_6_3 <= 6
 active_c_ge_max_bbox_min_bbox_A2_pv_4_pv_6_3: - max_bbox_A2
   + 5 y_A2_edge_pv_4_pv_6_3 <= 4
 edge_flow_ub_A2_pv_4_pv_6_3: - 2 y_A2_edge_pv_4_pv_6_3
   + f_A2_edge_pv_4_pv_6_3 <= 0
 edge_flow_lb_A2_pv_4_pv_6_3: 2 y_A2_edge_pv_4_pv_6_3
   + f_A2_edge_pv_4_pv_6_3 >= 0
 global_zero_constraint_A2_pv_4_pv_6_2: - indicator_A2_pp_3
   - indicator_A2_nn_3 - indicator_A2_ac_3 - indicator_A2_pp_6
   - indicator_A2_nn_6 - indicator_A2_ac_6 - indicator_A2_pp_9
   - indicator_A2_nn_9 - indicator_A2_ac_9 - indicator_A2_pp_12
   - indicator_A2_nn_12 - indicator_A2_ac_12 - indicator_A2_pp_15
   - indicator_A2_nn_15 - indicator_A2_ac_15 + y_A2_edge_pv_4_pv_6_2 <= -1
 active_c_ge_min_indicator_min_bbox_A2_pv_4_pv_6_2: min_indicator_A2
   + 5 y_A2_edge_pv_4_pv_6_2 <= 6
 active_c_ge_max_bbox_min_bbox_A2_pv_4_pv_6_2: - max_bbox_A2
   + 5 y_A2_edge_pv_4_pv_6_2 <= 4
 edge_flow_ub_A2_pv_4_pv_6_2: - 2 y_A2_edge_pv_4_pv_6_2
   + f_A2_edge_pv_4_pv_6_2 <= 0
 edge_flow_lb_A2_pv_4_pv_6_2: 2 y_A2_edge_pv_4_pv_6_2
   + f_A2_edge_pv_4_pv_6_2 >= 0
 global_zero_constraint_A2_nv_4_nv_6_1: - indicator_A2_pp_3
   - indicator_A2_nn_3 - indicator_A2_ac_3 - indicator_A2_pp_6
   - indicator_A2_nn_6 - indicator_A2_ac_6 - indicator_A2_pp_9
   - indicator_A2_nn_9 - indicator_A2_ac_9 - indicator_A2_pp_12
   - indicator_A2_nn_12 - indicator_A2_ac_12 - indicator_A2_pp_15
   - indicator_A2_nn_15 - indicator_A2_ac_15 + y_A2_edge_nv_4_nv_6_1 <= -1
 active_c_ge_min_indicator_min_bbox_A2_nv_4_nv_6_1: min_indicator_A2
   + 5 y_A2_edge_nv_4_nv_6_1 <= 6
 active_c_ge_max_bbox_min_bbox_A2_nv_4_nv_6_1: - max_bbox_A2
   + 5 y_A2_edge_nv_4_nv_6_1 <= 4
 edge_flow_ub_A2_nv_4_nv_6_1: - 2 y_A2_edge_nv_4_nv_6_1
   + f_A2_edge_nv_4_nv_6_1 <= 0
 edge_flow_lb_A2_nv_4_nv_6_1: 2 y_A2_edge_nv_4_nv_6_1
   + f_A2_edge_nv_4_nv_6_1 >= 0
 global_zero_constraint_A2_nv_4_nv_6_0: - indicator_A2_pp_3
   - indicator_A2_nn_3 - indicator_A2_ac_3 - indicator_A2_pp_6
   - indicator_A2_nn_6 - indicator_A2_ac_6 - indicator_A2_pp_9
   - indicator_A2_nn_9 - indicator_A2_ac_9 - indicator_A2_pp_12
   - indicator_A2_nn_12 - indicator_A2_ac_12 - indicator_A2_pp_15
   - indicator_A2_nn_15 - indicator_A2_ac_15 + y_A2_edge_nv_4_nv_6_0 <= -1
 active_c_ge_min_indicator_min_bbox_A2_nv_4_nv_6_0: min_indicator_A2
   + 5 y_A2_edge_nv_4_nv_6_0 <= 6
 active_c_ge_max_bbox_min_bbox_A2_nv_4_nv_6_0: - max_bbox_A2
   + 5 y_A2_edge_nv_4_nv_6_0 <= 4
 edge_flow_ub_A2_nv_4_nv_6_0: - 2 y_A2_edge_nv_4_nv_6_0
   + f_A2_edge_nv_4_nv_6_0 <= 0
 edge_flow_lb_A2_nv_4_nv_6_0: 2 y_A2_edge_nv_4_nv_6_0
   + f_A2_edge_nv_4_nv_6_0 >= 0
 global_zero_constraint_A2_pv_6_pv_8_3: - indicator_A2_pp_3
   - indicator_A2_nn_3 - indicator_A2_ac_3 - indicator_A2_pp_6
   - indicator_A2_nn_6 - indicator_A2_ac_6 - indicator_A2_pp_9
   - indicator_A2_nn_9 - indicator_A2_ac_9 - indicator_A2_pp_12
   - indicator_A2_nn_12 - indicator_A2_ac_12 - indicator_A2_pp_15
   - indicator_A2_nn_15 - indicator_A2_ac_15 + y_A2_edge_pv_6_pv_8_3 <= -1
 active_c_ge_min_indicator_min_bbox_A2_pv_6_pv_8_3: min_indicator_A2
   + 5 y_A2_edge_pv_6_pv_8_3 <= 7
 active_c_ge_max_bbox_min_bbox_A2_pv_6_pv_8_3: - max_bbox_A2
   + 5 y_A2_edge_pv_6_pv_8_3 <= 3
 edge_flow_ub_A2_pv_6_pv_8_3: - 2 y_A2_edge_pv_6_pv_8_3
   + f_A2_edge_pv_6_pv_8_3 <= 0
 edge_flow_lb_A2_pv_6_pv_8_3: 2 y_A2_edge_pv_6_pv_8_3
   + f_A2_edge_pv_6_pv_8_3 >= 0
 global_zero_constraint_A2_pv_6_pv_8_2: - indicator_A2_pp_3
   - indicator_A2_nn_3 - indicator_A2_ac_3 - indicator_A2_pp_6
   - indicator_A2_nn_6 - indicator_A2_ac_6 - indicator_A2_pp_9
   - indicator_A2_nn_9 - indicator_A2_ac_9 - indicator_A2_pp_12
   - indicator_A2_nn_12 - indicator_A2_ac_12 - indicator_A2_pp_15
   - indicator_A2_nn_15 - indicator_A2_ac_15 + y_A2_edge_pv_6_pv_8_2 <= -1
 active_c_ge_min_indicator_min_bbox_A2_pv_6_pv_8_2: min_indicator_A2
   + 5 y_A2_edge_pv_6_pv_8_2 <= 7
 active_c_ge_max_bbox_min_bbox_A2_pv_6_pv_8_2: - max_bbox_A2
   + 5 y_A2_edge_pv_6_pv_8_2 <= 3
 edge_flow_ub_A2_pv_6_pv_8_2: - 2 y_A2_edge_pv_6_pv_8_2
   + f_A2_edge_pv_6_pv_8_2 <= 0
 edge_flow_lb_A2_pv_6_pv_8_2: 2 y_A2_edge_pv_6_pv_8_2
   + f_A2_edge_pv_6_pv_8_2 >= 0
 global_zero_constraint_A2_nv_6_nv_8_1: - indicator_A2_pp_3
   - indicator_A2_nn_3 - indicator_A2_ac_3 - indicator_A2_pp_6
   - indicator_A2_nn_6 - indicator_A2_ac_6 - indicator_A2_pp_9
   - indicator_A2_nn_9 - indicator_A2_ac_9 - indicator_A2_pp_12
   - indicator_A2_nn_12 - indicator_A2_ac_12 - indicator_A2_pp_15
   - indicator_A2_nn_15 - indicator_A2_ac_15 + y_A2_edge_nv_6_nv_8_1 <= -1
 active_c_ge_min_indicator_min_bbox_A2_nv_6_nv_8_1: min_indicator_A2
   + 5 y_A2_edge_nv_6_nv_8_1 <= 7
 active_c_ge_max_bbox_min_bbox_A2_nv_6_nv_8_1: - max_bbox_A2
   + 5 y_A2_edge_nv_6_nv_8_1 <= 3
 edge_flow_ub_A2_nv_6_nv_8_1: - 2 y_A2_edge_nv_6_nv_8_1
   + f_A2_edge_nv_6_nv_8_1 <= 0
 edge_flow_lb_A2_nv_6_nv_8_1: 2 y_A2_edge_nv_6_nv_8_1
   + f_A2_edge_nv_6_nv_8_1 >= 0
 global_zero_constraint_A2_nv_6_nv_8_0: - indicator_A2_pp_3
   - indicator_A2_nn_3 - indicator_A2_ac_3 - indicator_A2_pp_6
   - indicator_A2_nn_6 - indicator_A2_ac_6 - indicator_A2_pp_9
   - indicator_A2_nn_9 - indicator_A2_ac_9 - indicator_A2_pp_12
   - indicator_A2_nn_12 - indicator_A2_ac_12 - indicator_A2_pp_15
   - indicator_A2_nn_15 - indicator_A2_ac_15 + y_A2_edge_nv_6_nv_8_0 <= -1
 active_c_ge_min_indicator_min_bbox_A2_nv_6_nv_8_0: min_indicator_A2
   + 5 y_A2_edge_nv_6_nv_8_0 <= 7
 active_c_ge_max_bbox_min_bbox_A2_nv_6_nv_8_0: - max_bbox_A2
   + 5 y_A2_edge_nv_6_nv_8_0 <= 3
 edge_flow_ub_A2_nv_6_nv_8_0: - 2 y_A2_edge_nv_6_nv_8_0
   + f_A2_edge_nv_6_nv_8_0 <= 0
 edge_flow_lb_A2_nv_6_nv_8_0: 2 y_A2_edge_nv_6_nv_8_0
   + f_A2_edge_nv_6_nv_8_0 >= 0
 global_zero_constraint_A2_pv_8_pv_9_3: - indicator_A2_pp_3
   - indicator_A2_nn_3 - indicator_A2_ac_3 - indicator_A2_pp_6
   - indicator_A2_nn_6 - indicator_A2_ac_6 - indicator_A2_pp_9
   - indicator_A2_nn_9 - indicator_A2_ac_9 - indicator_A2_pp_12
   - indicator_A2_nn_12 - indicator_A2_ac_12 - indicator_A2_pp_15
   - indicator_A2_nn_15 - indicator_A2_ac_15 + y_A2_edge_pv_8_pv_9_3 <= -1
 active_c_ge_min_indicator_min_bbox_A2_pv_8_pv_9_3: min_indicator_A2
   + 5 y_A2_edge_pv_8_pv_9_3 <= 7
 active_c_ge_max_bbox_min_bbox_A2_pv_8_pv_9_3: - max_bbox_A2
   + 5 y_A2_edge_pv_8_pv_9_3 <= 3
 edge_flow_ub_A2_pv_8_pv_9_3: - 2 y_A2_edge_pv_8_pv_9_3
   + f_A2_edge_pv_8_pv_9_3 <= 0
 edge_flow_lb_A2_pv_8_pv_9_3: 2 y_A2_edge_pv_8_pv_9_3
   + f_A2_edge_pv_8_pv_9_3 >= 0
 global_zero_constraint_A2_pv_8_pv_9_2: - indicator_A2_pp_3
   - indicator_A2_nn_3 - indicator_A2_ac_3 - indicator_A2_pp_6
   - indicator_A2_nn_6 - indicator_A2_ac_6 - indicator_A2_pp_9
   - indicator_A2_nn_9 - indicator_A2_ac_9 - indicator_A2_pp_12
   - indicator_A2_nn_12 - indicator_A2_ac_12 - indicator_A2_pp_15
   - indicator_A2_nn_15 - indicator_A2_ac_15 + y_A2_edge_pv_8_pv_9_2 <= -1
 active_c_ge_min_indicator_min_bbox_A2_pv_8_pv_9_2: min_indicator_A2
   + 5 y_A2_edge_pv_8_pv_9_2 <= 7
 active_c_ge_max_bbox_min_bbox_A2_pv_8_pv_9_2: - max_bbox_A2
   + 5 y_A2_edge_pv_8_pv_9_2 <= 3
 edge_flow_ub_A2_pv_8_pv_9_2: - 2 y_A2_edge_pv_8_pv_9_2
   + f_A2_edge_pv_8_pv_9_2 <= 0
 edge_flow_lb_A2_pv_8_pv_9_2: 2 y_A2_edge_pv_8_pv_9_2
   + f_A2_edge_pv_8_pv_9_2 >= 0
 global_zero_constraint_A2_nv_8_nv_9_1: - indicator_A2_pp_3
   - indicator_A2_nn_3 - indicator_A2_ac_3 - indicator_A2_pp_6
   - indicator_A2_nn_6 - indicator_A2_ac_6 - indicator_A2_pp_9
   - indicator_A2_nn_9 - indicator_A2_ac_9 - indicator_A2_pp_12
   - indicator_A2_nn_12 - indicator_A2_ac_12 - indicator_A2_pp_15
   - indicator_A2_nn_15 - indicator_A2_ac_15 + y_A2_edge_nv_8_nv_9_1 <= -1
 active_c_ge_min_indicator_min_bbox_A2_nv_8_nv_9_1: min_indicator_A2
   + 5 y_A2_edge_nv_8_nv_9_1 <= 7
 active_c_ge_max_bbox_min_bbox_A2_nv_8_nv_9_1: - max_bbox_A2
   + 5 y_A2_edge_nv_8_nv_9_1 <= 3
 edge_flow_ub_A2_nv_8_nv_9_1: - 2 y_A2_edge_nv_8_nv_9_1
   + f_A2_edge_nv_8_nv_9_1 <= 0
 edge_flow_lb_A2_nv_8_nv_9_1: 2 y_A2_edge_nv_8_nv_9_1
   + f_A2_edge_nv_8_nv_9_1 >= 0
 global_zero_constraint_A2_nv_8_nv_9_0: - indicator_A2_pp_3
   - indicator_A2_nn_3 - indicator_A2_ac_3 - indicator_A2_pp_6
   - indicator_A2_nn_6 - indicator_A2_ac_6 - indicator_A2_pp_9
   - indicator_A2_nn_9 - indicator_A2_ac_9 - indicator_A2_pp_12
   - indicator_A2_nn_12 - indicator_A2_ac_12 - indicator_A2_pp_15
   - indicator_A2_nn_15 - indicator_A2_ac_15 + y_A2_edge_nv_8_nv_9_0 <= -1
 active_c_ge_min_indicator_min_bbox_A2_nv_8_nv_9_0: min_indicator_A2
   + 5 y_A2_edge_nv_8_nv_9_0 <= 7
 active_c_ge_max_bbox_min_bbox_A2_nv_8_nv_9_0: - max_bbox_A2
   + 5 y_A2_edge_nv_8_nv_9_0 <= 3
 edge_flow_ub_A2_nv_8_nv_9_0: - 2 y_A2_edge_nv_8_nv_9_0
   + f_A2_edge_nv_8_nv_9_0 <= 0
 edge_flow_lb_A2_nv_8_nv_9_0: 2 y_A2_edge_nv_8_nv_9_0
   + f_A2_edge_nv_8_nv_9_0 >= 0
 global_zero_constraint_A2_pv_9_pv_12_3: - indicator_A2_pp_3
   - indicator_A2_nn_3 - indicator_A2_ac_3 - indicator_A2_pp_6
   - indicator_A2_nn_6 - indicator_A2_ac_6 - indicator_A2_pp_9
   - indicator_A2_nn_9 - indicator_A2_ac_9 - indicator_A2_pp_12
   - indicator_A2_nn_12 - indicator_A2_ac_12 - indicator_A2_pp_15
   - indicator_A2_nn_15 - indicator_A2_ac_15 + y_A2_edge_pv_9_pv_12_3
   <= -1
 active_c_ge_min_indicator_min_bbox_A2_pv_9_pv_12_3: min_indicator_A2
   + 5 y_A2_edge_pv_9_pv_12_3 <= 8
 active_c_ge_max_bbox_min_bbox_A2_pv_9_pv_12_3: - max_bbox_A2
   + 5 y_A2_edge_pv_9_pv_12_3 <= 2
 edge_flow_ub_A2_pv_9_pv_12_3: - 2 y_A2_edge_pv_9_pv_12_3
   + f_A2_edge_pv_9_pv_12_3 <= 0
 edge_flow_lb_A2_pv_9_pv_12_3: 2 y_A2_edge_pv_9_pv_12_3
   + f_A2_edge_pv_9_pv_12_3 >= 0
 global_zero_constraint_A2_pv_9_pv_12_2: - indicator_A2_pp_3
   - indicator_A2_nn_3 - indicator_A2_ac_3 - indicator_A2_pp_6
   - indicator_A2_nn_6 - indicator_A2_ac_6 - indicator_A2_pp_9
   - indicator_A2_nn_9 - indicator_A2_ac_9 - indicator_A2_pp_12
   - indicator_A2_nn_12 - indicator_A2_ac_12 - indicator_A2_pp_15
   - indicator_A2_nn_15 - indicator_A2_ac_15 + y_A2_edge_pv_9_pv_12_2
   <= -1
 active_c_ge_min_indicator_min_bbox_A2_pv_9_pv_12_2: min_indicator_A2
   + 5 y_A2_edge_pv_9_pv_12_2 <= 8
 active_c_ge_max_bbox_min_bbox_A2_pv_9_pv_12_2: - max_bbox_A2
   + 5 y_A2_edge_pv_9_pv_12_2 <= 2
 edge_flow_ub_A2_pv_9_pv_12_2: - 2 y_A2_edge_pv_9_pv_12_2
   + f_A2_edge_pv_9_pv_12_2 <= 0
 edge_flow_lb_A2_pv_9_pv_12_2: 2 y_A2_edge_pv_9_pv_12_2
   + f_A2_edge_pv_9_pv_12_2 >= 0
 global_zero_constraint_A2_nv_9_nv_12_1: - indicator_A2_pp_3
   - indicator_A2_nn_3 - indicator_A2_ac_3 - indicator_A2_pp_6
   - indicator_A2_nn_6 - indicator_A2_ac_6 - indicator_A2_pp_9
   - indicator_A2_nn_9 - indicator_A2_ac_9 - indicator_A2_pp_12
   - indicator_A2_nn_12 - indicator_A2_ac_12 - indicator_A2_pp_15
   - indicator_A2_nn_15 - indicator_A2_ac_15 + y_A2_edge_nv_9_nv_12_1
   <= -1
 active_c_ge_min_indicator_min_bbox_A2_nv_9_nv_12_1: min_indicator_A2
   + 5 y_A2_edge_nv_9_nv_12_1 <= 8
 active_c_ge_max_bbox_min_bbox_A2_nv_9_nv_12_1: - max_bbox_A2
   + 5 y_A2_edge_nv_9_nv_12_1 <= 2
 edge_flow_ub_A2_nv_9_nv_12_1: - 2 y_A2_edge_nv_9_nv_12_1
   + f_A2_edge_nv_9_nv_12_1 <= 0
 edge_flow_lb_A2_nv_9_nv_12_1: 2 y_A2_edge_nv_9_nv_12_1
   + f_A2_edge_nv_9_nv_12_1 >= 0
 global_zero_constraint_A2_nv_9_nv_12_0: - indicator_A2_pp_3
   - indicator_A2_nn_3 - indicator_A2_ac_3 - indicator_A2_pp_6
   - indicator_A2_nn_6 - indicator_A2_ac_6 - indicator_A2_pp_9
   - indicator_A2_nn_9 - indicator_A2_ac_9 - indicator_A2_pp_12
   - indicator_A2_nn_12 - indicator_A2_ac_12 - indicator_A2_pp_15
   - indicator_A2_nn_15 - indicator_A2_ac_15 + y_A2_edge_nv_9_nv_12_0
   <= -1
 active_c_ge_min_indicator_min_bbox_A2_nv_9_nv_12_0: min_indicator_A2
   + 5 y_A2_edge_nv_9_nv_12_0 <= 8
 active_c_ge_max_bbox_min_bbox_A2_nv_9_nv_12_0: - max_bbox_A2
   + 5 y_A2_edge_nv_9_nv_12_0 <= 2
 edge_flow_ub_A2_nv_9_nv_12_0: - 2 y_A2_edge_nv_9_nv_12_0
   + f_A2_edge_nv_9_nv_12_0 <= 0
 edge_flow_lb_A2_nv_9_nv_12_0: 2 y_A2_edge_nv_9_nv_12_0
   + f_A2_edge_nv_9_nv_12_0 >= 0
 global_zero_constraint_A2_pv_12_pv_15_3: - indicator_A2_pp_3
   - indicator_A2_nn_3 - indicator_A2_ac_3 - indicator_A2_pp_6
   - indicator_A2_nn_6 - indicator_A2_ac_6 - indicator_A2_pp_9
   - indicator_A2_nn_9 - indicator_A2_ac_9 - indicator_A2_pp_12
   - indicator_A2_nn_12 - indicator_A2_ac_12 - indicator_A2_pp_15
   - indicator_A2_nn_15 - indicator_A2_ac_15 + y_A2_edge_pv_12_pv_15_3
   <= -1
 active_c_ge_min_indicator_min_bbox_A2_pv_12_pv_15_3: min_indicator_A2
   + 5 y_A2_edge_pv_12_pv_15_3 <= 9
 active_c_ge_max_bbox_min_bbox_A2_pv_12_pv_15_3: - max_bbox_A2
   + 5 y_A2_edge_pv_12_pv_15_3 <= 1
 edge_flow_ub_A2_pv_12_pv_15_3: - 2 y_A2_edge_pv_12_pv_15_3
   + f_A2_edge_pv_12_pv_15_3 <= 0
 edge_flow_lb_A2_pv_12_pv_15_3: 2 y_A2_edge_pv_12_pv_15_3
   + f_A2_edge_pv_12_pv_15_3 >= 0
 global_zero_constraint_A2_pv_12_pv_15_2: - indicator_A2_pp_3
   - indicator_A2_nn_3 - indicator_A2_ac_3 - indicator_A2_pp_6
   - indicator_A2_nn_6 - indicator_A2_ac_6 - indicator_A2_pp_9
   - indicator_A2_nn_9 - indicator_A2_ac_9 - indicator_A2_pp_12
   - indicator_A2_nn_12 - indicator_A2_ac_12 - indicator_A2_pp_15
   - indicator_A2_nn_15 - indicator_A2_ac_15 + y_A2_edge_pv_12_pv_15_2
   <= -1
 active_c_ge_min_indicator_min_bbox_A2_pv_12_pv_15_2: min_indicator_A2
   + 5 y_A2_edge_pv_12_pv_15_2 <= 9
 active_c_ge_max_bbox_min_bbox_A2_pv_12_pv_15_2: - max_bbox_A2
   + 5 y_A2_edge_pv_12_pv_15_2 <= 1
 edge_flow_ub_A2_pv_12_pv_15_2: - 2 y_A2_edge_pv_12_pv_15_2
   + f_A2_edge_pv_12_pv_15_2 <= 0
 edge_flow_lb_A2_pv_12_pv_15_2: 2 y_A2_edge_pv_12_pv_15_2
   + f_A2_edge_pv_12_pv_15_2 >= 0
 global_zero_constraint_A2_nv_12_nv_15_1: - indicator_A2_pp_3
   - indicator_A2_nn_3 - indicator_A2_ac_3 - indicator_A2_pp_6
   - indicator_A2_nn_6 - indicator_A2_ac_6 - indicator_A2_pp_9
   - indicator_A2_nn_9 - indicator_A2_ac_9 - indicator_A2_pp_12
   - indicator_A2_nn_12 - indicator_A2_ac_12 - indicator_A2_pp_15
   - indicator_A2_nn_15 - indicator_A2_ac_15 + y_A2_edge_nv_12_nv_15_1
   <= -1
 active_c_ge_min_indicator_min_bbox_A2_nv_12_nv_15_1: min_indicator_A2
   + 5 y_A2_edge_nv_12_nv_15_1 <= 9
 active_c_ge_max_bbox_min_bbox_A2_nv_12_nv_15_1: - max_bbox_A2
   + 5 y_A2_edge_nv_12_nv_15_1 <= 1
 edge_flow_ub_A2_nv_12_nv_15_1: - 2 y_A2_edge_nv_12_nv_15_1
   + f_A2_edge_nv_12_nv_15_1 <= 0
 edge_flow_lb_A2_nv_12_nv_15_1: 2 y_A2_edge_nv_12_nv_15_1
   + f_A2_edge_nv_12_nv_15_1 >= 0
 global_zero_constraint_A2_nv_12_nv_15_0: - indicator_A2_pp_3
   - indicator_A2_nn_3 - indicator_A2_ac_3 - indicator_A2_pp_6
   - indicator_A2_nn_6 - indicator_A2_ac_6 - indicator_A2_pp_9
   - indicator_A2_nn_9 - indicator_A2_ac_9 - indicator_A2_pp_12
   - indicator_A2_nn_12 - indicator_A2_ac_12 - indicator_A2_pp_15
   - indicator_A2_nn_15 - indicator_A2_ac_15 + y_A2_edge_nv_12_nv_15_0
   <= -1
 active_c_ge_min_indicator_min_bbox_A2_nv_12_nv_15_0: min_indicator_A2
   + 5 y_A2_edge_nv_12_nv_15_0 <= 9
 active_c_ge_max_bbox_min_bbox_A2_nv_12_nv_15_0: - max_bbox_A2
   + 5 y_A2_edge_nv_12_nv_15_0 <= 1
 edge_flow_ub_A2_nv_12_nv_15_0: - 2 y_A2_edge_nv_12_nv_15_0
   + f_A2_edge_nv_12_nv_15_0 <= 0
 edge_flow_lb_A2_nv_12_nv_15_0: 2 y_A2_edge_nv_12_nv_15_0
   + f_A2_edge_nv_12_nv_15_0 >= 0
 global_zero_constraint_A2_m1_4_pv_4_ve: - indicator_A2_pp_3
   - indicator_A2_nn_3 - indicator_A2_ac_3 - indicator_A2_pp_6
   - indicator_A2_nn_6 - indicator_A2_ac_6 - indicator_A2_pp_9
   - indicator_A2_nn_9 - indicator_A2_ac_9 - indicator_A2_pp_12
   - indicator_A2_nn_12 - indicator_A2_ac_12 - indicator_A2_pp_15
   - indicator_A2_nn_15 - indicator_A2_ac_15
   + y_A2_edge_via_enable_m1_4_pv_4 <= -1
 active_c_ge_min_indicator_min_one_A2_m1_4_pv_4_ve: min_indicator_A2
   + 5 y_A2_edge_via_enable_m1_4_pv_4 <= 6
 active_c_ge_max_bbox_min_bbox_A2_m1_4_pv_4_ve: - max_bbox_A2
   + 5 y_A2_edge_via_enable_m1_4_pv_4 <= 4
 edge_flow_ub_A2_m1_4_pv_4_ve: - 2 y_A2_edge_via_enable_m1_4_pv_4
   + f_A2_edge_via_enable_m1_4_pv_4 <= 0
 edge_flow_lb_A2_m1_4_pv_4_ve: 2 y_A2_edge_via_enable_m1_4_pv_4
   + f_A2_edge_via_enable_m1_4_pv_4 >= 0
 global_zero_constraint_A2_m1_4_nv_4_ve: - indicator_A2_pp_3
   - indicator_A2_nn_3 - indicator_A2_ac_3 - indicator_A2_pp_6
   - indicator_A2_nn_6 - indicator_A2_ac_6 - indicator_A2_pp_9
   - indicator_A2_nn_9 - indicator_A2_ac_9 - indicator_A2_pp_12
   - indicator_A2_nn_12 - indicator_A2_ac_12 - indicator_A2_pp_15
   - indicator_A2_nn_15 - indicator_A2_ac_15
   + y_A2_edge_via_enable_m1_4_nv_4 <= -1
 active_c_ge_min_indicator_min_one_A2_m1_4_nv_4_ve: min_indicator_A2
   + 5 y_A2_edge_via_enable_m1_4_nv_4 <= 6
 active_c_ge_max_bbox_min_bbox_A2_m1_4_nv_4_ve: - max_bbox_A2
   + 5 y_A2_edge_via_enable_m1_4_nv_4 <= 4
 edge_flow_ub_A2_m1_4_nv_4_ve: - 2 y_A2_edge_via_enable_m1_4_nv_4
   + f_A2_edge_via_enable_m1_4_nv_4 <= 0
 edge_flow_lb_A2_m1_4_nv_4_ve: 2 y_A2_edge_via_enable_m1_4_nv_4
   + f_A2_edge_via_enable_m1_4_nv_4 >= 0
 global_zero_constraint_A2_m1_4_m1_8_7: - indicator_A2_pp_3
   - indicator_A2_nn_3 - indicator_A2_ac_3 - indicator_A2_pp_6
   - indicator_A2_nn_6 - indicator_A2_ac_6 - indicator_A2_pp_9
   - indicator_A2_nn_9 - indicator_A2_ac_9 - indicator_A2_pp_12
   - indicator_A2_nn_12 - indicator_A2_ac_12 - indicator_A2_pp_15
   - indicator_A2_nn_15 - indicator_A2_ac_15 + y_A2_edge_m1_4_m1_8_r_7
   <= -1
 active_c_ge_min_indicator_min_one_A2_m1_4_m1_8_7: min_indicator_A2
   + 5 y_A2_edge_m1_4_m1_8_r_7 <= 7
 active_c_ge_max_bbox_min_bbox_A2_m1_4_m1_8_7: - max_bbox_A2
   + 5 y_A2_edge_m1_4_m1_8_r_7 <= 3
 edge_flow_ub_A2_m1_4_m1_8_7: - 2 y_A2_edge_m1_4_m1_8_r_7
   + f_A2_edge_m1_4_m1_8_r_7 <= 0
 edge_flow_lb_A2_m1_4_m1_8_7: 2 y_A2_edge_m1_4_m1_8_r_7
   + f_A2_edge_m1_4_m1_8_r_7 >= 0
 global_zero_constraint_A2_m1_4_m1_8_6: - indicator_A2_pp_3
   - indicator_A2_nn_3 - indicator_A2_ac_3 - indicator_A2_pp_6
   - indicator_A2_nn_6 - indicator_A2_ac_6 - indicator_A2_pp_9
   - indicator_A2_nn_9 - indicator_A2_ac_9 - indicator_A2_pp_12
   - indicator_A2_nn_12 - indicator_A2_ac_12 - indicator_A2_pp_15
   - indicator_A2_nn_15 - indicator_A2_ac_15 + y_A2_edge_m1_4_m1_8_r_6
   <= -1
 active_c_ge_min_indicator_min_one_A2_m1_4_m1_8_6: min_indicator_A2
   + 5 y_A2_edge_m1_4_m1_8_r_6 <= 7
 active_c_ge_max_bbox_min_bbox_A2_m1_4_m1_8_6: - max_bbox_A2
   + 5 y_A2_edge_m1_4_m1_8_r_6 <= 3
 edge_flow_ub_A2_m1_4_m1_8_6: - 2 y_A2_edge_m1_4_m1_8_r_6
   + f_A2_edge_m1_4_m1_8_r_6 <= 0
 edge_flow_lb_A2_m1_4_m1_8_6: 2 y_A2_edge_m1_4_m1_8_r_6
   + f_A2_edge_m1_4_m1_8_r_6 >= 0
 global_zero_constraint_A2_m1_4_m1_8_5: - indicator_A2_pp_3
   - indicator_A2_nn_3 - indicator_A2_ac_3 - indicator_A2_pp_6
   - indicator_A2_nn_6 - indicator_A2_ac_6 - indicator_A2_pp_9
   - indicator_A2_nn_9 - indicator_A2_ac_9 - indicator_A2_pp_12
   - indicator_A2_nn_12 - indicator_A2_ac_12 - indicator_A2_pp_15
   - indicator_A2_nn_15 - indicator_A2_ac_15 + y_A2_edge_m1_4_m1_8_r_5
   <= -1
 active_c_ge_min_indicator_min_one_A2_m1_4_m1_8_5: min_indicator_A2
   + 5 y_A2_edge_m1_4_m1_8_r_5 <= 7
 active_c_ge_max_bbox_min_bbox_A2_m1_4_m1_8_5: - max_bbox_A2
   + 5 y_A2_edge_m1_4_m1_8_r_5 <= 3
 edge_flow_ub_A2_m1_4_m1_8_5: - 2 y_A2_edge_m1_4_m1_8_r_5
   + f_A2_edge_m1_4_m1_8_r_5 <= 0
 edge_flow_lb_A2_m1_4_m1_8_5: 2 y_A2_edge_m1_4_m1_8_r_5
   + f_A2_edge_m1_4_m1_8_r_5 >= 0
 global_zero_constraint_A2_m1_4_m1_8_4: - indicator_A2_pp_3
   - indicator_A2_nn_3 - indicator_A2_ac_3 - indicator_A2_pp_6
   - indicator_A2_nn_6 - indicator_A2_ac_6 - indicator_A2_pp_9
   - indicator_A2_nn_9 - indicator_A2_ac_9 - indicator_A2_pp_12
   - indicator_A2_nn_12 - indicator_A2_ac_12 - indicator_A2_pp_15
   - indicator_A2_nn_15 - indicator_A2_ac_15 + y_A2_edge_m1_4_m1_8_r_4
   <= -1
 active_c_ge_min_indicator_min_one_A2_m1_4_m1_8_4: min_indicator_A2
   + 5 y_A2_edge_m1_4_m1_8_r_4 <= 7
 active_c_ge_max_bbox_min_bbox_A2_m1_4_m1_8_4: - max_bbox_A2
   + 5 y_A2_edge_m1_4_m1_8_r_4 <= 3
 edge_flow_ub_A2_m1_4_m1_8_4: - 2 y_A2_edge_m1_4_m1_8_r_4
   + f_A2_edge_m1_4_m1_8_r_4 <= 0
 edge_flow_lb_A2_m1_4_m1_8_4: 2 y_A2_edge_m1_4_m1_8_r_4
   + f_A2_edge_m1_4_m1_8_r_4 >= 0
 global_zero_constraint_A2_m1_8_pv_8_ve: - indicator_A2_pp_3
   - indicator_A2_nn_3 - indicator_A2_ac_3 - indicator_A2_pp_6
   - indicator_A2_nn_6 - indicator_A2_ac_6 - indicator_A2_pp_9
   - indicator_A2_nn_9 - indicator_A2_ac_9 - indicator_A2_pp_12
   - indicator_A2_nn_12 - indicator_A2_ac_12 - indicator_A2_pp_15
   - indicator_A2_nn_15 - indicator_A2_ac_15
   + y_A2_edge_via_enable_m1_8_pv_8 <= -1
 active_c_ge_min_indicator_min_one_A2_m1_8_pv_8_ve: min_indicator_A2
   + 5 y_A2_edge_via_enable_m1_8_pv_8 <= 7
 active_c_ge_max_bbox_min_bbox_A2_m1_8_pv_8_ve: - max_bbox_A2
   + 5 y_A2_edge_via_enable_m1_8_pv_8 <= 3
 edge_flow_ub_A2_m1_8_pv_8_ve: - 2 y_A2_edge_via_enable_m1_8_pv_8
   + f_A2_edge_via_enable_m1_8_pv_8 <= 0
 edge_flow_lb_A2_m1_8_pv_8_ve: 2 y_A2_edge_via_enable_m1_8_pv_8
   + f_A2_edge_via_enable_m1_8_pv_8 >= 0
 global_zero_constraint_A2_m1_8_nv_8_ve: - indicator_A2_pp_3
   - indicator_A2_nn_3 - indicator_A2_ac_3 - indicator_A2_pp_6
   - indicator_A2_nn_6 - indicator_A2_ac_6 - indicator_A2_pp_9
   - indicator_A2_nn_9 - indicator_A2_ac_9 - indicator_A2_pp_12
   - indicator_A2_nn_12 - indicator_A2_ac_12 - indicator_A2_pp_15
   - indicator_A2_nn_15 - indicator_A2_ac_15
   + y_A2_edge_via_enable_m1_8_nv_8 <= -1
 active_c_ge_min_indicator_min_one_A2_m1_8_nv_8_ve: min_indicator_A2
   + 5 y_A2_edge_via_enable_m1_8_nv_8 <= 7
 active_c_ge_max_bbox_min_bbox_A2_m1_8_nv_8_ve: - max_bbox_A2
   + 5 y_A2_edge_via_enable_m1_8_nv_8 <= 3
 edge_flow_ub_A2_m1_8_nv_8_ve: - 2 y_A2_edge_via_enable_m1_8_nv_8
   + f_A2_edge_via_enable_m1_8_nv_8 <= 0
 edge_flow_lb_A2_m1_8_nv_8_ve: 2 y_A2_edge_via_enable_m1_8_nv_8
   + f_A2_edge_via_enable_m1_8_nv_8 >= 0
 global_zero_constraint_A2_m1_8_m1_12_7: - indicator_A2_pp_3
   - indicator_A2_nn_3 - indicator_A2_ac_3 - indicator_A2_pp_6
   - indicator_A2_nn_6 - indicator_A2_ac_6 - indicator_A2_pp_9
   - indicator_A2_nn_9 - indicator_A2_ac_9 - indicator_A2_pp_12
   - indicator_A2_nn_12 - indicator_A2_ac_12 - indicator_A2_pp_15
   - indicator_A2_nn_15 - indicator_A2_ac_15 + y_A2_edge_m1_8_m1_12_r_7
   <= -1
 active_c_ge_min_indicator_min_one_A2_m1_8_m1_12_7: min_indicator_A2
   + 5 y_A2_edge_m1_8_m1_12_r_7 <= 8
 active_c_ge_max_bbox_min_bbox_A2_m1_8_m1_12_7: - max_bbox_A2
   + 5 y_A2_edge_m1_8_m1_12_r_7 <= 2
 edge_flow_ub_A2_m1_8_m1_12_7: - 2 y_A2_edge_m1_8_m1_12_r_7
   + f_A2_edge_m1_8_m1_12_r_7 <= 0
 edge_flow_lb_A2_m1_8_m1_12_7: 2 y_A2_edge_m1_8_m1_12_r_7
   + f_A2_edge_m1_8_m1_12_r_7 >= 0
 global_zero_constraint_A2_m1_8_m1_12_6: - indicator_A2_pp_3
   - indicator_A2_nn_3 - indicator_A2_ac_3 - indicator_A2_pp_6
   - indicator_A2_nn_6 - indicator_A2_ac_6 - indicator_A2_pp_9
   - indicator_A2_nn_9 - indicator_A2_ac_9 - indicator_A2_pp_12
   - indicator_A2_nn_12 - indicator_A2_ac_12 - indicator_A2_pp_15
   - indicator_A2_nn_15 - indicator_A2_ac_15 + y_A2_edge_m1_8_m1_12_r_6
   <= -1
 active_c_ge_min_indicator_min_one_A2_m1_8_m1_12_6: min_indicator_A2
   + 5 y_A2_edge_m1_8_m1_12_r_6 <= 8
 active_c_ge_max_bbox_min_bbox_A2_m1_8_m1_12_6: - max_bbox_A2
   + 5 y_A2_edge_m1_8_m1_12_r_6 <= 2
 edge_flow_ub_A2_m1_8_m1_12_6: - 2 y_A2_edge_m1_8_m1_12_r_6
   + f_A2_edge_m1_8_m1_12_r_6 <= 0
 edge_flow_lb_A2_m1_8_m1_12_6: 2 y_A2_edge_m1_8_m1_12_r_6
   + f_A2_edge_m1_8_m1_12_r_6 >= 0
 global_zero_constraint_A2_m1_8_m1_12_5: - indicator_A2_pp_3
   - indicator_A2_nn_3 - indicator_A2_ac_3 - indicator_A2_pp_6
   - indicator_A2_nn_6 - indicator_A2_ac_6 - indicator_A2_pp_9
   - indicator_A2_nn_9 - indicator_A2_ac_9 - indicator_A2_pp_12
   - indicator_A2_nn_12 - indicator_A2_ac_12 - indicator_A2_pp_15
   - indicator_A2_nn_15 - indicator_A2_ac_15 + y_A2_edge_m1_8_m1_12_r_5
   <= -1
 active_c_ge_min_indicator_min_one_A2_m1_8_m1_12_5: min_indicator_A2
   + 5 y_A2_edge_m1_8_m1_12_r_5 <= 8
 active_c_ge_max_bbox_min_bbox_A2_m1_8_m1_12_5: - max_bbox_A2
   + 5 y_A2_edge_m1_8_m1_12_r_5 <= 2
 edge_flow_ub_A2_m1_8_m1_12_5: - 2 y_A2_edge_m1_8_m1_12_r_5
   + f_A2_edge_m1_8_m1_12_r_5 <= 0
 edge_flow_lb_A2_m1_8_m1_12_5: 2 y_A2_edge_m1_8_m1_12_r_5
   + f_A2_edge_m1_8_m1_12_r_5 >= 0
 global_zero_constraint_A2_m1_8_m1_12_4: - indicator_A2_pp_3
   - indicator_A2_nn_3 - indicator_A2_ac_3 - indicator_A2_pp_6
   - indicator_A2_nn_6 - indicator_A2_ac_6 - indicator_A2_pp_9
   - indicator_A2_nn_9 - indicator_A2_ac_9 - indicator_A2_pp_12
   - indicator_A2_nn_12 - indicator_A2_ac_12 - indicator_A2_pp_15
   - indicator_A2_nn_15 - indicator_A2_ac_15 + y_A2_edge_m1_8_m1_12_r_4
   <= -1
 active_c_ge_min_indicator_min_one_A2_m1_8_m1_12_4: min_indicator_A2
   + 5 y_A2_edge_m1_8_m1_12_r_4 <= 8
 active_c_ge_max_bbox_min_bbox_A2_m1_8_m1_12_4: - max_bbox_A2
   + 5 y_A2_edge_m1_8_m1_12_r_4 <= 2
 edge_flow_ub_A2_m1_8_m1_12_4: - 2 y_A2_edge_m1_8_m1_12_r_4
   + f_A2_edge_m1_8_m1_12_r_4 <= 0
 edge_flow_lb_A2_m1_8_m1_12_4: 2 y_A2_edge_m1_8_m1_12_r_4
   + f_A2_edge_m1_8_m1_12_r_4 >= 0
 global_zero_constraint_A2_m1_12_pv_12_ve: - indicator_A2_pp_3
   - indicator_A2_nn_3 - indicator_A2_ac_3 - indicator_A2_pp_6
   - indicator_A2_nn_6 - indicator_A2_ac_6 - indicator_A2_pp_9
   - indicator_A2_nn_9 - indicator_A2_ac_9 - indicator_A2_pp_12
   - indicator_A2_nn_12 - indicator_A2_ac_12 - indicator_A2_pp_15
   - indicator_A2_nn_15 - indicator_A2_ac_15
   + y_A2_edge_via_enable_m1_12_pv_12 <= -1
 active_c_ge_min_indicator_min_one_A2_m1_12_pv_12_ve: min_indicator_A2
   + 5 y_A2_edge_via_enable_m1_12_pv_12 <= 8
 active_c_ge_max_bbox_min_bbox_A2_m1_12_pv_12_ve: - max_bbox_A2
   + 5 y_A2_edge_via_enable_m1_12_pv_12 <= 2
 edge_flow_ub_A2_m1_12_pv_12_ve: - 2 y_A2_edge_via_enable_m1_12_pv_12
   + f_A2_edge_via_enable_m1_12_pv_12 <= 0
 edge_flow_lb_A2_m1_12_pv_12_ve: 2 y_A2_edge_via_enable_m1_12_pv_12
   + f_A2_edge_via_enable_m1_12_pv_12 >= 0
 global_zero_constraint_A2_m1_12_nv_12_ve: - indicator_A2_pp_3
   - indicator_A2_nn_3 - indicator_A2_ac_3 - indicator_A2_pp_6
   - indicator_A2_nn_6 - indicator_A2_ac_6 - indicator_A2_pp_9
   - indicator_A2_nn_9 - indicator_A2_ac_9 - indicator_A2_pp_12
   - indicator_A2_nn_12 - indicator_A2_ac_12 - indicator_A2_pp_15
   - indicator_A2_nn_15 - indicator_A2_ac_15
   + y_A2_edge_via_enable_m1_12_nv_12 <= -1
 active_c_ge_min_indicator_min_one_A2_m1_12_nv_12_ve: min_indicator_A2
   + 5 y_A2_edge_via_enable_m1_12_nv_12 <= 8
 active_c_ge_max_bbox_min_bbox_A2_m1_12_nv_12_ve: - max_bbox_A2
   + 5 y_A2_edge_via_enable_m1_12_nv_12 <= 2
 edge_flow_ub_A2_m1_12_nv_12_ve: - 2 y_A2_edge_via_enable_m1_12_nv_12
   + f_A2_edge_via_enable_m1_12_nv_12 <= 0
 edge_flow_lb_A2_m1_12_nv_12_ve: 2 y_A2_edge_via_enable_m1_12_nv_12
   + f_A2_edge_via_enable_m1_12_nv_12 >= 0
 via_enable_A2_m1_12_pv_4: - v_A2_v[0] + y_A2_edge_via_enable_m1_4_pv_4
   <= 0
 via_enable_A2_m1_12_nv_4: - v_A2_v[0] + y_A2_edge_via_enable_m1_4_nv_4
   <= 0
 via_enable_A2_m1_12_pv_8: - v_A2_v[1] + y_A2_edge_via_enable_m1_8_pv_8
   <= 0
 via_enable_A2_m1_12_nv_8: - v_A2_v[1] + y_A2_edge_via_enable_m1_8_nv_8
   <= 0
 via_enable_A2_m1_12_pv_12: - v_A2_v[2] + y_A2_edge_via_enable_m1_12_pv_12
   <= 0
 via_enable_A2_m1_12_nv_12: - v_A2_v[2] + y_A2_edge_via_enable_m1_12_nv_12
   <= 0
 t_activation_A2_pv_3_pv_4_0_3: t_A2_c_r[0,3] - y_A2_edge_pv_3_pv_4_3 >= 0
 t_activation_A2_pv_3_pv_4_1_3: t_A2_c_r[1,3] - y_A2_edge_pv_3_pv_4_3 >= 0
 logical_constraint_A2_pv_3_pv_4_j_index_3: - t_eol_c_r[2,3]
   - t_A2_c_r[2,3] + y_A2_edge_pv_3_pv_4_3 <= 0
 t_activation_A2_pv_3_pv_4_0_2: t_A2_c_r[0,2] - y_A2_edge_pv_3_pv_4_2 >= 0
 t_activation_A2_pv_3_pv_4_1_2: t_A2_c_r[1,2] - y_A2_edge_pv_3_pv_4_2 >= 0
 logical_constraint_A2_pv_3_pv_4_j_index_2: - t_eol_c_r[2,2]
   - t_A2_c_r[2,2] + y_A2_edge_pv_3_pv_4_2 <= 0
 t_activation_A2_nv_3_nv_4_0_1: t_A2_c_r[0,1] - y_A2_edge_nv_3_nv_4_1 >= 0
 t_activation_A2_nv_3_nv_4_1_1: t_A2_c_r[1,1] - y_A2_edge_nv_3_nv_4_1 >= 0
 logical_constraint_A2_nv_3_nv_4_j_index_1: - t_eol_c_r[2,1]
   - t_A2_c_r[2,1] + y_A2_edge_nv_3_nv_4_1 <= 0
 t_activation_A2_nv_3_nv_4_0_0: t_A2_c_r[0,0] - y_A2_edge_nv_3_nv_4_0 >= 0
 t_activation_A2_nv_3_nv_4_1_0: t_A2_c_r[1,0] - y_A2_edge_nv_3_nv_4_0 >= 0
 logical_constraint_A2_nv_3_nv_4_j_index_0: - t_eol_c_r[2,0]
   - t_A2_c_r[2,0] + y_A2_edge_nv_3_nv_4_0 <= 0
 t_activation_A2_pv_4_pv_6_0_3: t_A2_c_r[0,3] - y_A2_edge_pv_4_pv_6_3 >= 0
 t_activation_A2_pv_4_pv_6_1_3: t_A2_c_r[1,3] - y_A2_edge_pv_4_pv_6_3 >= 0
 logical_constraint_A2_pv_4_pv_6_j_index_3: - t_eol_c_r[2,3]
   - t_A2_c_r[2,3] + y_A2_edge_pv_4_pv_6_3 <= 0
 t_activation_A2_pv_4_pv_6_0_2: t_A2_c_r[0,2] - y_A2_edge_pv_4_pv_6_2 >= 0
 t_activation_A2_pv_4_pv_6_1_2: t_A2_c_r[1,2] - y_A2_edge_pv_4_pv_6_2 >= 0
 logical_constraint_A2_pv_4_pv_6_j_index_2: - t_eol_c_r[2,2]
   - t_A2_c_r[2,2] + y_A2_edge_pv_4_pv_6_2 <= 0
 t_activation_A2_nv_4_nv_6_0_1: t_A2_c_r[0,1] - y_A2_edge_nv_4_nv_6_1 >= 0
 t_activation_A2_nv_4_nv_6_1_1: t_A2_c_r[1,1] - y_A2_edge_nv_4_nv_6_1 >= 0
 logical_constraint_A2_nv_4_nv_6_j_index_1: - t_eol_c_r[2,1]
   - t_A2_c_r[2,1] + y_A2_edge_nv_4_nv_6_1 <= 0
 t_activation_A2_nv_4_nv_6_0_0: t_A2_c_r[0,0] - y_A2_edge_nv_4_nv_6_0 >= 0
 t_activation_A2_nv_4_nv_6_1_0: t_A2_c_r[1,0] - y_A2_edge_nv_4_nv_6_0 >= 0
 logical_constraint_A2_nv_4_nv_6_j_index_0: - t_eol_c_r[2,0]
   - t_A2_c_r[2,0] + y_A2_edge_nv_4_nv_6_0 <= 0
 t_activation_A2_pv_6_pv_8_1_3: t_A2_c_r[1,3] - y_A2_edge_pv_6_pv_8_3 >= 0
 t_activation_A2_pv_6_pv_8_2_3: t_A2_c_r[2,3] - y_A2_edge_pv_6_pv_8_3 >= 0
 logical_constraint_A2_pv_6_pv_8_i_index_minus_1_3: - t_eol_c_r[0,3]
   - t_A2_c_r[0,3] + y_A2_edge_pv_6_pv_8_3 <= 0
 logical_constraint_A2_pv_6_pv_8_j_index_3: - t_eol_c_r[3,3]
   - t_A2_c_r[3,3] + y_A2_edge_pv_6_pv_8_3 <= 0
 t_activation_A2_pv_6_pv_8_1_2: t_A2_c_r[1,2] - y_A2_edge_pv_6_pv_8_2 >= 0
 t_activation_A2_pv_6_pv_8_2_2: t_A2_c_r[2,2] - y_A2_edge_pv_6_pv_8_2 >= 0
 logical_constraint_A2_pv_6_pv_8_i_index_minus_1_2: - t_eol_c_r[0,2]
   - t_A2_c_r[0,2] + y_A2_edge_pv_6_pv_8_2 <= 0
 logical_constraint_A2_pv_6_pv_8_j_index_2: - t_eol_c_r[3,2]
   - t_A2_c_r[3,2] + y_A2_edge_pv_6_pv_8_2 <= 0
 t_activation_A2_nv_6_nv_8_1_1: t_A2_c_r[1,1] - y_A2_edge_nv_6_nv_8_1 >= 0
 t_activation_A2_nv_6_nv_8_2_1: t_A2_c_r[2,1] - y_A2_edge_nv_6_nv_8_1 >= 0
 logical_constraint_A2_nv_6_nv_8_i_index_minus_1_1: - t_eol_c_r[0,1]
   - t_A2_c_r[0,1] + y_A2_edge_nv_6_nv_8_1 <= 0
 logical_constraint_A2_nv_6_nv_8_j_index_1: - t_eol_c_r[3,1]
   - t_A2_c_r[3,1] + y_A2_edge_nv_6_nv_8_1 <= 0
 t_activation_A2_nv_6_nv_8_1_0: t_A2_c_r[1,0] - y_A2_edge_nv_6_nv_8_0 >= 0
 t_activation_A2_nv_6_nv_8_2_0: t_A2_c_r[2,0] - y_A2_edge_nv_6_nv_8_0 >= 0
 logical_constraint_A2_nv_6_nv_8_i_index_minus_1_0: - t_eol_c_r[0,0]
   - t_A2_c_r[0,0] + y_A2_edge_nv_6_nv_8_0 <= 0
 logical_constraint_A2_nv_6_nv_8_j_index_0: - t_eol_c_r[3,0]
   - t_A2_c_r[3,0] + y_A2_edge_nv_6_nv_8_0 <= 0
 t_activation_A2_pv_8_pv_9_1_3: t_A2_c_r[1,3] - y_A2_edge_pv_8_pv_9_3 >= 0
 t_activation_A2_pv_8_pv_9_2_3: t_A2_c_r[2,3] - y_A2_edge_pv_8_pv_9_3 >= 0
 logical_constraint_A2_pv_8_pv_9_i_index_minus_1_3: - t_eol_c_r[0,3]
   - t_A2_c_r[0,3] + y_A2_edge_pv_8_pv_9_3 <= 0
 logical_constraint_A2_pv_8_pv_9_j_index_3: - t_eol_c_r[3,3]
   - t_A2_c_r[3,3] + y_A2_edge_pv_8_pv_9_3 <= 0
 t_activation_A2_pv_8_pv_9_1_2: t_A2_c_r[1,2] - y_A2_edge_pv_8_pv_9_2 >= 0
 t_activation_A2_pv_8_pv_9_2_2: t_A2_c_r[2,2] - y_A2_edge_pv_8_pv_9_2 >= 0
 logical_constraint_A2_pv_8_pv_9_i_index_minus_1_2: - t_eol_c_r[0,2]
   - t_A2_c_r[0,2] + y_A2_edge_pv_8_pv_9_2 <= 0
 logical_constraint_A2_pv_8_pv_9_j_index_2: - t_eol_c_r[3,2]
   - t_A2_c_r[3,2] + y_A2_edge_pv_8_pv_9_2 <= 0
 t_activation_A2_nv_8_nv_9_1_1: t_A2_c_r[1,1] - y_A2_edge_nv_8_nv_9_1 >= 0
 t_activation_A2_nv_8_nv_9_2_1: t_A2_c_r[2,1] - y_A2_edge_nv_8_nv_9_1 >= 0
 logical_constraint_A2_nv_8_nv_9_i_index_minus_1_1: - t_eol_c_r[0,1]
   - t_A2_c_r[0,1] + y_A2_edge_nv_8_nv_9_1 <= 0
 logical_constraint_A2_nv_8_nv_9_j_index_1: - t_eol_c_r[3,1]
   - t_A2_c_r[3,1] + y_A2_edge_nv_8_nv_9_1 <= 0
 t_activation_A2_nv_8_nv_9_1_0: t_A2_c_r[1,0] - y_A2_edge_nv_8_nv_9_0 >= 0
 t_activation_A2_nv_8_nv_9_2_0: t_A2_c_r[2,0] - y_A2_edge_nv_8_nv_9_0 >= 0
 logical_constraint_A2_nv_8_nv_9_i_index_minus_1_0: - t_eol_c_r[0,0]
   - t_A2_c_r[0,0] + y_A2_edge_nv_8_nv_9_0 <= 0
 logical_constraint_A2_nv_8_nv_9_j_index_0: - t_eol_c_r[3,0]
   - t_A2_c_r[3,0] + y_A2_edge_nv_8_nv_9_0 <= 0
 t_activation_A2_pv_9_pv_12_2_3: t_A2_c_r[2,3] - y_A2_edge_pv_9_pv_12_3
   >= 0
 t_activation_A2_pv_9_pv_12_3_3: t_A2_c_r[3,3] - y_A2_edge_pv_9_pv_12_3
   >= 0
 logical_constraint_A2_pv_9_pv_12_i_index_minus_1_3: - t_eol_c_r[1,3]
   - t_A2_c_r[1,3] + y_A2_edge_pv_9_pv_12_3 <= 0
 logical_constraint_A2_pv_9_pv_12_j_index_3: - t_eol_c_r[4,3]
   - t_A2_c_r[4,3] + y_A2_edge_pv_9_pv_12_3 <= 0
 t_activation_A2_pv_9_pv_12_2_2: t_A2_c_r[2,2] - y_A2_edge_pv_9_pv_12_2
   >= 0
 t_activation_A2_pv_9_pv_12_3_2: t_A2_c_r[3,2] - y_A2_edge_pv_9_pv_12_2
   >= 0
 logical_constraint_A2_pv_9_pv_12_i_index_minus_1_2: - t_eol_c_r[1,2]
   - t_A2_c_r[1,2] + y_A2_edge_pv_9_pv_12_2 <= 0
 logical_constraint_A2_pv_9_pv_12_j_index_2: - t_eol_c_r[4,2]
   - t_A2_c_r[4,2] + y_A2_edge_pv_9_pv_12_2 <= 0
 t_activation_A2_nv_9_nv_12_2_1: t_A2_c_r[2,1] - y_A2_edge_nv_9_nv_12_1
   >= 0
 t_activation_A2_nv_9_nv_12_3_1: t_A2_c_r[3,1] - y_A2_edge_nv_9_nv_12_1
   >= 0
 logical_constraint_A2_nv_9_nv_12_i_index_minus_1_1: - t_eol_c_r[1,1]
   - t_A2_c_r[1,1] + y_A2_edge_nv_9_nv_12_1 <= 0
 logical_constraint_A2_nv_9_nv_12_j_index_1: - t_eol_c_r[4,1]
   - t_A2_c_r[4,1] + y_A2_edge_nv_9_nv_12_1 <= 0
 t_activation_A2_nv_9_nv_12_2_0: t_A2_c_r[2,0] - y_A2_edge_nv_9_nv_12_0
   >= 0
 t_activation_A2_nv_9_nv_12_3_0: t_A2_c_r[3,0] - y_A2_edge_nv_9_nv_12_0
   >= 0
 logical_constraint_A2_nv_9_nv_12_i_index_minus_1_0: - t_eol_c_r[1,0]
   - t_A2_c_r[1,0] + y_A2_edge_nv_9_nv_12_0 <= 0
 logical_constraint_A2_nv_9_nv_12_j_index_0: - t_eol_c_r[4,0]
   - t_A2_c_r[4,0] + y_A2_edge_nv_9_nv_12_0 <= 0
 t_activation_A2_pv_12_pv_15_3_3: t_A2_c_r[3,3] - y_A2_edge_pv_12_pv_15_3
   >= 0
 t_activation_A2_pv_12_pv_15_4_3: t_A2_c_r[4,3] - y_A2_edge_pv_12_pv_15_3
   >= 0
 logical_constraint_A2_pv_12_pv_15_i_index_minus_1_3: - t_eol_c_r[2,3]
   - t_A2_c_r[2,3] + y_A2_edge_pv_12_pv_15_3 <= 0
 t_activation_A2_pv_12_pv_15_3_2: t_A2_c_r[3,2] - y_A2_edge_pv_12_pv_15_2
   >= 0
 t_activation_A2_pv_12_pv_15_4_2: t_A2_c_r[4,2] - y_A2_edge_pv_12_pv_15_2
   >= 0
 logical_constraint_A2_pv_12_pv_15_i_index_minus_1_2: - t_eol_c_r[2,2]
   - t_A2_c_r[2,2] + y_A2_edge_pv_12_pv_15_2 <= 0
 t_activation_A2_nv_12_nv_15_3_1: t_A2_c_r[3,1] - y_A2_edge_nv_12_nv_15_1
   >= 0
 t_activation_A2_nv_12_nv_15_4_1: t_A2_c_r[4,1] - y_A2_edge_nv_12_nv_15_1
   >= 0
 logical_constraint_A2_nv_12_nv_15_i_index_minus_1_1: - t_eol_c_r[2,1]
   - t_A2_c_r[2,1] + y_A2_edge_nv_12_nv_15_1 <= 0
 t_activation_A2_nv_12_nv_15_3_0: t_A2_c_r[3,0] - y_A2_edge_nv_12_nv_15_0
   >= 0
 t_activation_A2_nv_12_nv_15_4_0: t_A2_c_r[4,0] - y_A2_edge_nv_12_nv_15_0
   >= 0
 logical_constraint_A2_nv_12_nv_15_i_index_minus_1_0: - t_eol_c_r[2,0]
   - t_A2_c_r[2,0] + y_A2_edge_nv_12_nv_15_0 <= 0
 t_activation_A2_m1_4_m1_8_0_7: ut_A2_c_r[0,7] - y_A2_edge_m1_4_m1_8_r_7
   >= 0
 t_activation_A2_m1_4_m1_8_1_7: ut_A2_c_r[1,7] - y_A2_edge_m1_4_m1_8_r_7
   >= 0
 t_activation_A2_m1_4_m1_8_2_7: ut_A2_c_r[2,7] - y_A2_edge_m1_4_m1_8_r_7
   >= 0
 logical_constraint_A2_m1_4_m1_8_j_index_7: - ut_eol_c_r[3,7]
   - ut_A2_c_r[3,7] + y_A2_edge_m1_4_m1_8_r_7 <= 0
 t_activation_A2_m1_4_m1_8_0_6: ut_A2_c_r[0,6] - y_A2_edge_m1_4_m1_8_r_6
   >= 0
 t_activation_A2_m1_4_m1_8_1_6: ut_A2_c_r[1,6] - y_A2_edge_m1_4_m1_8_r_6
   >= 0
 t_activation_A2_m1_4_m1_8_2_6: ut_A2_c_r[2,6] - y_A2_edge_m1_4_m1_8_r_6
   >= 0
 logical_constraint_A2_m1_4_m1_8_j_index_6: - ut_eol_c_r[3,6]
   - ut_A2_c_r[3,6] + y_A2_edge_m1_4_m1_8_r_6 <= 0
 t_activation_A2_m1_4_m1_8_0_5: ut_A2_c_r[0,5] - y_A2_edge_m1_4_m1_8_r_5
   >= 0
 t_activation_A2_m1_4_m1_8_1_5: ut_A2_c_r[1,5] - y_A2_edge_m1_4_m1_8_r_5
   >= 0
 t_activation_A2_m1_4_m1_8_2_5: ut_A2_c_r[2,5] - y_A2_edge_m1_4_m1_8_r_5
   >= 0
 logical_constraint_A2_m1_4_m1_8_j_index_5: - ut_eol_c_r[3,5]
   - ut_A2_c_r[3,5] + y_A2_edge_m1_4_m1_8_r_5 <= 0
 t_activation_A2_m1_4_m1_8_0_4: ut_A2_c_r[0,4] - y_A2_edge_m1_4_m1_8_r_4
   >= 0
 t_activation_A2_m1_4_m1_8_1_4: ut_A2_c_r[1,4] - y_A2_edge_m1_4_m1_8_r_4
   >= 0
 t_activation_A2_m1_4_m1_8_2_4: ut_A2_c_r[2,4] - y_A2_edge_m1_4_m1_8_r_4
   >= 0
 logical_constraint_A2_m1_4_m1_8_j_index_4: - ut_eol_c_r[3,4]
   - ut_A2_c_r[3,4] + y_A2_edge_m1_4_m1_8_r_4 <= 0
 t_activation_A2_m1_8_m1_12_1_7: ut_A2_c_r[1,7] - y_A2_edge_m1_8_m1_12_r_7
   >= 0
 t_activation_A2_m1_8_m1_12_2_7: ut_A2_c_r[2,7] - y_A2_edge_m1_8_m1_12_r_7
   >= 0
 t_activation_A2_m1_8_m1_12_3_7: ut_A2_c_r[3,7] - y_A2_edge_m1_8_m1_12_r_7
   >= 0
 logical_constraint_A2_m1_8_m1_12_i_index_minus_2_7: - ut_eol_c_r[0,7]
   - ut_A2_c_r[0,7] + y_A2_edge_m1_8_m1_12_r_7 <= 0
 logical_constraint_A2_m1_8_m1_12_j_index_7: - ut_eol_c_r[4,7]
   - ut_A2_c_r[4,7] + y_A2_edge_m1_8_m1_12_r_7 <= 0
 t_activation_A2_m1_8_m1_12_1_6: ut_A2_c_r[1,6] - y_A2_edge_m1_8_m1_12_r_6
   >= 0
 t_activation_A2_m1_8_m1_12_2_6: ut_A2_c_r[2,6] - y_A2_edge_m1_8_m1_12_r_6
   >= 0
 t_activation_A2_m1_8_m1_12_3_6: ut_A2_c_r[3,6] - y_A2_edge_m1_8_m1_12_r_6
   >= 0
 logical_constraint_A2_m1_8_m1_12_i_index_minus_2_6: - ut_eol_c_r[0,6]
   - ut_A2_c_r[0,6] + y_A2_edge_m1_8_m1_12_r_6 <= 0
 logical_constraint_A2_m1_8_m1_12_j_index_6: - ut_eol_c_r[4,6]
   - ut_A2_c_r[4,6] + y_A2_edge_m1_8_m1_12_r_6 <= 0
 t_activation_A2_m1_8_m1_12_1_5: ut_A2_c_r[1,5] - y_A2_edge_m1_8_m1_12_r_5
   >= 0
 t_activation_A2_m1_8_m1_12_2_5: ut_A2_c_r[2,5] - y_A2_edge_m1_8_m1_12_r_5
   >= 0
 t_activation_A2_m1_8_m1_12_3_5: ut_A2_c_r[3,5] - y_A2_edge_m1_8_m1_12_r_5
   >= 0
 logical_constraint_A2_m1_8_m1_12_i_index_minus_2_5: - ut_eol_c_r[0,5]
   - ut_A2_c_r[0,5] + y_A2_edge_m1_8_m1_12_r_5 <= 0
 logical_constraint_A2_m1_8_m1_12_j_index_5: - ut_eol_c_r[4,5]
   - ut_A2_c_r[4,5] + y_A2_edge_m1_8_m1_12_r_5 <= 0
 t_activation_A2_m1_8_m1_12_1_4: ut_A2_c_r[1,4] - y_A2_edge_m1_8_m1_12_r_4
   >= 0
 t_activation_A2_m1_8_m1_12_2_4: ut_A2_c_r[2,4] - y_A2_edge_m1_8_m1_12_r_4
   >= 0
 t_activation_A2_m1_8_m1_12_3_4: ut_A2_c_r[3,4] - y_A2_edge_m1_8_m1_12_r_4
   >= 0
 logical_constraint_A2_m1_8_m1_12_i_index_minus_2_4: - ut_eol_c_r[0,4]
   - ut_A2_c_r[0,4] + y_A2_edge_m1_8_m1_12_r_4 <= 0
 logical_constraint_A2_m1_8_m1_12_j_index_4: - ut_eol_c_r[4,4]
   - ut_A2_c_r[4,4] + y_A2_edge_m1_8_m1_12_r_4 <= 0
 flow_conservation_A2_ac_3: f_A2_edge_connector_pv_3_ac_3_co
   + f_A2_edge_connector_nv_3_ac_3_co - cap_A2_ac_3 = 0
 flow_conservation_A2_nn_3: f_A2_edge_connector_nv_3_nn_3_co - cap_A2_nn_3
   = 0
 middle_node_A2_nv_3: cap_A2_nv_3 = 0
 flow_conservation_A2_nv_3: - f_A2_edge_connector_nv_3_nn_3_co
   - f_A2_edge_connector_nv_3_ac_3_co - f_A2_edge_nv_3_nv_4_1
   - f_A2_edge_nv_3_nv_4_0 - cap_A2_nv_3 = 0
 flow_conservation_A2_pp_3: f_A2_edge_connector_pv_3_pp_3_co - cap_A2_pp_3
   = 0
 middle_node_A2_pv_3: cap_A2_pv_3 = 0
 flow_conservation_A2_pv_3: - f_A2_edge_connector_pv_3_pp_3_co
   - f_A2_edge_connector_pv_3_ac_3_co - f_A2_edge_pv_3_pv_4_3
   - f_A2_edge_pv_3_pv_4_2 - cap_A2_pv_3 = 0
 middle_node_A2_m1_4: cap_A2_m1_4 = 0
 flow_conservation_A2_m1_4: - f_A2_edge_via_enable_m1_4_pv_4
   - f_A2_edge_via_enable_m1_4_nv_4 - f_A2_edge_m1_4_m1_8_r_7
   - f_A2_edge_m1_4_m1_8_r_6 - f_A2_edge_m1_4_m1_8_r_5
   - f_A2_edge_m1_4_m1_8_r_4 - cap_A2_m1_4 = 0
 middle_node_A2_nv_4: cap_A2_nv_4 = 0
 flow_conservation_A2_nv_4: f_A2_edge_nv_3_nv_4_1 + f_A2_edge_nv_3_nv_4_0
   - f_A2_edge_nv_4_nv_6_1 - f_A2_edge_nv_4_nv_6_0
   + f_A2_edge_via_enable_m1_4_nv_4 - cap_A2_nv_4 = 0
 middle_node_A2_pv_4: cap_A2_pv_4 = 0
 flow_conservation_A2_pv_4: f_A2_edge_pv_3_pv_4_3 + f_A2_edge_pv_3_pv_4_2
   - f_A2_edge_pv_4_pv_6_3 - f_A2_edge_pv_4_pv_6_2
   + f_A2_edge_via_enable_m1_4_pv_4 - cap_A2_pv_4 = 0
 flow_conservation_A2_ac_6: f_A2_edge_connector_pv_6_ac_6_co
   + f_A2_edge_connector_nv_6_ac_6_co - cap_A2_ac_6 = 0
 flow_conservation_A2_nn_6: f_A2_edge_connector_nv_6_nn_6_co - cap_A2_nn_6
   = 0
 middle_node_A2_nv_6: cap_A2_nv_6 = 0
 flow_conservation_A2_nv_6: - f_A2_edge_connector_nv_6_nn_6_co
   - f_A2_edge_connector_nv_6_ac_6_co + f_A2_edge_nv_4_nv_6_1
   + f_A2_edge_nv_4_nv_6_0 - f_A2_edge_nv_6_nv_8_1 - f_A2_edge_nv_6_nv_8_0
   - cap_A2_nv_6 = 0
 flow_conservation_A2_pp_6: f_A2_edge_connector_pv_6_pp_6_co - cap_A2_pp_6
   = 0
 middle_node_A2_pv_6: cap_A2_pv_6 = 0
 flow_conservation_A2_pv_6: - f_A2_edge_connector_pv_6_pp_6_co
   - f_A2_edge_connector_pv_6_ac_6_co + f_A2_edge_pv_4_pv_6_3
   + f_A2_edge_pv_4_pv_6_2 - f_A2_edge_pv_6_pv_8_3 - f_A2_edge_pv_6_pv_8_2
   - cap_A2_pv_6 = 0
 middle_node_A2_m1_8: cap_A2_m1_8 = 0
 flow_conservation_A2_m1_8: f_A2_edge_m1_4_m1_8_r_7
   + f_A2_edge_m1_4_m1_8_r_6 + f_A2_edge_m1_4_m1_8_r_5
   + f_A2_edge_m1_4_m1_8_r_4 - f_A2_edge_via_enable_m1_8_pv_8
   - f_A2_edge_via_enable_m1_8_nv_8 - f_A2_edge_m1_8_m1_12_r_7
   - f_A2_edge_m1_8_m1_12_r_6 - f_A2_edge_m1_8_m1_12_r_5
   - f_A2_edge_m1_8_m1_12_r_4 - cap_A2_m1_8 = 0
 middle_node_A2_nv_8: cap_A2_nv_8 = 0
 flow_conservation_A2_nv_8: f_A2_edge_nv_6_nv_8_1 + f_A2_edge_nv_6_nv_8_0
   - f_A2_edge_nv_8_nv_9_1 - f_A2_edge_nv_8_nv_9_0
   + f_A2_edge_via_enable_m1_8_nv_8 - cap_A2_nv_8 = 0
 middle_node_A2_pv_8: cap_A2_pv_8 = 0
 flow_conservation_A2_pv_8: f_A2_edge_pv_6_pv_8_3 + f_A2_edge_pv_6_pv_8_2
   - f_A2_edge_pv_8_pv_9_3 - f_A2_edge_pv_8_pv_9_2
   + f_A2_edge_via_enable_m1_8_pv_8 - cap_A2_pv_8 = 0
 flow_conservation_A2_ac_9: f_A2_edge_connector_pv_9_ac_9_co
   + f_A2_edge_connector_nv_9_ac_9_co - cap_A2_ac_9 = 0
 flow_conservation_A2_nn_9: f_A2_edge_connector_nv_9_nn_9_co - cap_A2_nn_9
   = 0
 middle_node_A2_nv_9: cap_A2_nv_9 = 0
 flow_conservation_A2_nv_9: - f_A2_edge_connector_nv_9_nn_9_co
   - f_A2_edge_connector_nv_9_ac_9_co + f_A2_edge_nv_8_nv_9_1
   + f_A2_edge_nv_8_nv_9_0 - f_A2_edge_nv_9_nv_12_1
   - f_A2_edge_nv_9_nv_12_0 - cap_A2_nv_9 = 0
 flow_conservation_A2_pp_9: f_A2_edge_connector_pv_9_pp_9_co - cap_A2_pp_9
   = 0
 middle_node_A2_pv_9: cap_A2_pv_9 = 0
 flow_conservation_A2_pv_9: - f_A2_edge_connector_pv_9_pp_9_co
   - f_A2_edge_connector_pv_9_ac_9_co + f_A2_edge_pv_8_pv_9_3
   + f_A2_edge_pv_8_pv_9_2 - f_A2_edge_pv_9_pv_12_3
   - f_A2_edge_pv_9_pv_12_2 - cap_A2_pv_9 = 0
 flow_conservation_A2_ac_12: f_A2_edge_connector_pv_12_ac_12_co
   + f_A2_edge_connector_nv_12_ac_12_co - cap_A2_ac_12 = 0
 middle_node_A2_m1_12: cap_A2_m1_12 = 0
 flow_conservation_A2_m1_12: f_A2_edge_m1_8_m1_12_r_7
   + f_A2_edge_m1_8_m1_12_r_6 + f_A2_edge_m1_8_m1_12_r_5
   + f_A2_edge_m1_8_m1_12_r_4 - f_A2_edge_via_enable_m1_12_pv_12
   - f_A2_edge_via_enable_m1_12_nv_12 - cap_A2_m1_12 = 0
 flow_conservation_A2_nn_12: f_A2_edge_connector_nv_12_nn_12_co
   - cap_A2_nn_12 = 0
 middle_node_A2_nv_12: cap_A2_nv_12 = 0
 flow_conservation_A2_nv_12: - f_A2_edge_connector_nv_12_nn_12_co
   - f_A2_edge_connector_nv_12_ac_12_co + f_A2_edge_nv_9_nv_12_1
   + f_A2_edge_nv_9_nv_12_0 - f_A2_edge_nv_12_nv_15_1
   - f_A2_edge_nv_12_nv_15_0 + f_A2_edge_via_enable_m1_12_nv_12
   - cap_A2_nv_12 = 0
 flow_conservation_A2_pp_12: f_A2_edge_connector_pv_12_pp_12_co
   - cap_A2_pp_12 = 0
 middle_node_A2_pv_12: cap_A2_pv_12 = 0
 flow_conservation_A2_pv_12: - f_A2_edge_connector_pv_12_pp_12_co
   - f_A2_edge_connector_pv_12_ac_12_co + f_A2_edge_pv_9_pv_12_3
   + f_A2_edge_pv_9_pv_12_2 - f_A2_edge_pv_12_pv_15_3
   - f_A2_edge_pv_12_pv_15_2 + f_A2_edge_via_enable_m1_12_pv_12
   - cap_A2_pv_12 = 0
 flow_conservation_A2_ac_15: f_A2_edge_connector_pv_15_ac_15_co
   + f_A2_edge_connector_nv_15_ac_15_co - cap_A2_ac_15 = 0
 flow_conservation_A2_nn_15: f_A2_edge_connector_nv_15_nn_15_co
   - cap_A2_nn_15 = 0
 middle_node_A2_nv_15: cap_A2_nv_15 = 0
 flow_conservation_A2_nv_15: - f_A2_edge_connector_nv_15_nn_15_co
   - f_A2_edge_connector_nv_15_ac_15_co + f_A2_edge_nv_12_nv_15_1
   + f_A2_edge_nv_12_nv_15_0 - cap_A2_nv_15 = 0
 flow_conservation_A2_pp_15: f_A2_edge_connector_pv_15_pp_15_co
   - cap_A2_pp_15 = 0
 middle_node_A2_pv_15: cap_A2_pv_15 = 0
 flow_conservation_A2_pv_15: - f_A2_edge_connector_pv_15_pp_15_co
   - f_A2_edge_connector_pv_15_ac_15_co + f_A2_edge_pv_12_pv_15_3
   + f_A2_edge_pv_12_pv_15_2 - cap_A2_pv_15 = 0
 root_find_net16_pp_3: indicator_net16_pp_3 - root_node_net16_pp_3 >= 0
 root_find_net16_nn_3: indicator_net16_nn_3 - root_node_net16_nn_3 >= 0
 root_find_net16_ac_3: indicator_net16_ac_3 - root_node_net16_ac_3 >= 0
 max_indicator_find_net16_pp_3: indicator_net16_pp_3
   - max_indicator_net16_pp_3 >= 0
 max_indicator_find_net16_nn_3: indicator_net16_nn_3
   - max_indicator_net16_nn_3 >= 0
 max_indicator_find_net16_ac_3: indicator_net16_ac_3
   - max_indicator_net16_ac_3 >= 0
 link_nmos_net_and_indicator_net16_nn_3: - nmos_net_net16_c0
   + indicator_net16_nn_3 = 0
 nmos_only_net_indicator_zero_net16_pp_3: indicator_net16_pp_3 = 0
 nmos_only_net_indicator_zero_net16_ac_3: indicator_net16_ac_3 = 0
 min_indicator_constr_p_net16_0: min_indicator_net16
   + 5 indicator_net16_pp_3 <= 5
 min_indicator_constr_n_net16_0: min_indicator_net16
   + 5 indicator_net16_nn_3 <= 5
 min_indicator_constr_a_net16_0: min_indicator_net16
   + 5 indicator_net16_ac_3 <= 5
 root_node_match_p_net16_0: - min_indicator_net16 <= 0
 root_node_match_n_net16_0: - min_indicator_net16 <= 0
 root_node_match_a_net16_0: - min_indicator_net16 <= 0
 max_bbox_constr_p_net16_0: max_bbox_net16 - 5 indicator_net16_pp_3 >= -5
 max_bbox_constr_n_net16_0: max_bbox_net16 - 5 indicator_net16_nn_3 >= -5
 max_bbox_constr_a_net16_0: max_bbox_net16 - 5 indicator_net16_ac_3 >= -5
 max_indicator_match_p_net16_0: - max_bbox_net16
   - 4 max_indicator_net16_pp_3 >= -4
 max_indicator_match_n_net16_0: - max_bbox_net16
   - 4 max_indicator_net16_nn_3 >= -4
 max_indicator_match_a_net16_0: - max_bbox_net16
   - 4 max_indicator_net16_ac_3 >= -4
 root_find_net16_pp_6: indicator_net16_pp_6 - root_node_net16_pp_6 >= 0
 root_find_net16_nn_6: indicator_net16_nn_6 - root_node_net16_nn_6 >= 0
 root_find_net16_ac_6: indicator_net16_ac_6 - root_node_net16_ac_6 >= 0
 max_indicator_find_net16_pp_6: indicator_net16_pp_6
   - max_indicator_net16_pp_6 >= 0
 max_indicator_find_net16_nn_6: indicator_net16_nn_6
   - max_indicator_net16_nn_6 >= 0
 max_indicator_find_net16_ac_6: indicator_net16_ac_6
   - max_indicator_net16_ac_6 >= 0
 link_nmos_net_and_indicator_net16_nn_6: - nmos_net_net16_c1
   + indicator_net16_nn_6 = 0
 nmos_only_net_indicator_zero_net16_pp_6: indicator_net16_pp_6 = 0
 nmos_only_net_indicator_zero_net16_ac_6: indicator_net16_ac_6 = 0
 min_indicator_constr_p_net16_1: min_indicator_net16
   + 5 indicator_net16_pp_6 <= 6
 min_indicator_constr_n_net16_1: min_indicator_net16
   + 5 indicator_net16_nn_6 <= 6
 min_indicator_constr_a_net16_1: min_indicator_net16
   + 5 indicator_net16_ac_6 <= 6
 root_node_match_p_net16_1: - min_indicator_net16 + root_node_net16_pp_6
   <= 0
 root_node_match_n_net16_1: - min_indicator_net16 + root_node_net16_nn_6
   <= 0
 root_node_match_a_net16_1: - min_indicator_net16 + root_node_net16_ac_6
   <= 0
 max_bbox_constr_p_net16_1: max_bbox_net16 - 5 indicator_net16_pp_6 >= -4
 max_bbox_constr_n_net16_1: max_bbox_net16 - 5 indicator_net16_nn_6 >= -4
 max_bbox_constr_a_net16_1: max_bbox_net16 - 5 indicator_net16_ac_6 >= -4
 max_indicator_match_p_net16_1: - max_bbox_net16
   - 3 max_indicator_net16_pp_6 >= -4
 max_indicator_match_n_net16_1: - max_bbox_net16
   - 3 max_indicator_net16_nn_6 >= -4
 max_indicator_match_a_net16_1: - max_bbox_net16
   - 3 max_indicator_net16_ac_6 >= -4
 root_find_net16_pp_9: indicator_net16_pp_9 - root_node_net16_pp_9 >= 0
 root_find_net16_nn_9: indicator_net16_nn_9 - root_node_net16_nn_9 >= 0
 root_find_net16_ac_9: indicator_net16_ac_9 - root_node_net16_ac_9 >= 0
 max_indicator_find_net16_pp_9: indicator_net16_pp_9
   - max_indicator_net16_pp_9 >= 0
 max_indicator_find_net16_nn_9: indicator_net16_nn_9
   - max_indicator_net16_nn_9 >= 0
 max_indicator_find_net16_ac_9: indicator_net16_ac_9
   - max_indicator_net16_ac_9 >= 0
 link_nmos_net_and_indicator_net16_nn_9: - nmos_net_net16_c2
   + indicator_net16_nn_9 = 0
 nmos_only_net_indicator_zero_net16_pp_9: indicator_net16_pp_9 = 0
 nmos_only_net_indicator_zero_net16_ac_9: indicator_net16_ac_9 = 0
 min_indicator_constr_p_net16_2: min_indicator_net16
   + 5 indicator_net16_pp_9 <= 7
 min_indicator_constr_n_net16_2: min_indicator_net16
   + 5 indicator_net16_nn_9 <= 7
 min_indicator_constr_a_net16_2: min_indicator_net16
   + 5 indicator_net16_ac_9 <= 7
 root_node_match_p_net16_2: - min_indicator_net16 + 2 root_node_net16_pp_9
   <= 0
 root_node_match_n_net16_2: - min_indicator_net16 + 2 root_node_net16_nn_9
   <= 0
 root_node_match_a_net16_2: - min_indicator_net16 + 2 root_node_net16_ac_9
   <= 0
 max_bbox_constr_p_net16_2: max_bbox_net16 - 5 indicator_net16_pp_9 >= -3
 max_bbox_constr_n_net16_2: max_bbox_net16 - 5 indicator_net16_nn_9 >= -3
 max_bbox_constr_a_net16_2: max_bbox_net16 - 5 indicator_net16_ac_9 >= -3
 max_indicator_match_p_net16_2: - max_bbox_net16
   - 2 max_indicator_net16_pp_9 >= -4
 max_indicator_match_n_net16_2: - max_bbox_net16
   - 2 max_indicator_net16_nn_9 >= -4
 max_indicator_match_a_net16_2: - max_bbox_net16
   - 2 max_indicator_net16_ac_9 >= -4
 root_find_net16_pp_12: indicator_net16_pp_12 - root_node_net16_pp_12 >= 0
 root_find_net16_nn_12: indicator_net16_nn_12 - root_node_net16_nn_12 >= 0
 root_find_net16_ac_12: indicator_net16_ac_12 - root_node_net16_ac_12 >= 0
 max_indicator_find_net16_pp_12: indicator_net16_pp_12
   - max_indicator_net16_pp_12 >= 0
 max_indicator_find_net16_nn_12: indicator_net16_nn_12
   - max_indicator_net16_nn_12 >= 0
 max_indicator_find_net16_ac_12: indicator_net16_ac_12
   - max_indicator_net16_ac_12 >= 0
 link_nmos_net_and_indicator_net16_nn_12: - nmos_net_net16_c3
   + indicator_net16_nn_12 = 0
 nmos_only_net_indicator_zero_net16_pp_12: indicator_net16_pp_12 = 0
 nmos_only_net_indicator_zero_net16_ac_12: indicator_net16_ac_12 = 0
 min_indicator_constr_p_net16_3: min_indicator_net16
   + 5 indicator_net16_pp_12 <= 8
 min_indicator_constr_n_net16_3: min_indicator_net16
   + 5 indicator_net16_nn_12 <= 8
 min_indicator_constr_a_net16_3: min_indicator_net16
   + 5 indicator_net16_ac_12 <= 8
 root_node_match_p_net16_3: - min_indicator_net16 + 3 root_node_net16_pp_12
   <= 0
 root_node_match_n_net16_3: - min_indicator_net16 + 3 root_node_net16_nn_12
   <= 0
 root_node_match_a_net16_3: - min_indicator_net16 + 3 root_node_net16_ac_12
   <= 0
 max_bbox_constr_p_net16_3: max_bbox_net16 - 5 indicator_net16_pp_12 >= -2
 max_bbox_constr_n_net16_3: max_bbox_net16 - 5 indicator_net16_nn_12 >= -2
 max_bbox_constr_a_net16_3: max_bbox_net16 - 5 indicator_net16_ac_12 >= -2
 max_indicator_match_p_net16_3: - max_bbox_net16
   - max_indicator_net16_pp_12 >= -4
 max_indicator_match_n_net16_3: - max_bbox_net16
   - max_indicator_net16_nn_12 >= -4
 max_indicator_match_a_net16_3: - max_bbox_net16
   - max_indicator_net16_ac_12 >= -4
 root_find_net16_pp_15: indicator_net16_pp_15 - root_node_net16_pp_15 >= 0
 root_find_net16_nn_15: indicator_net16_nn_15 - root_node_net16_nn_15 >= 0
 root_find_net16_ac_15: indicator_net16_ac_15 - root_node_net16_ac_15 >= 0
 max_indicator_find_net16_pp_15: indicator_net16_pp_15
   - max_indicator_net16_pp_15 >= 0
 max_indicator_find_net16_nn_15: indicator_net16_nn_15
   - max_indicator_net16_nn_15 >= 0
 max_indicator_find_net16_ac_15: indicator_net16_ac_15
   - max_indicator_net16_ac_15 >= 0
 link_nmos_net_and_indicator_net16_nn_15: - nmos_net_net16_c4
   + indicator_net16_nn_15 = 0
 nmos_only_net_indicator_zero_net16_pp_15: indicator_net16_pp_15 = 0
 nmos_only_net_indicator_zero_net16_ac_15: indicator_net16_ac_15 = 0
 min_indicator_constr_p_net16_4: min_indicator_net16
   + 5 indicator_net16_pp_15 <= 9
 min_indicator_constr_n_net16_4: min_indicator_net16
   + 5 indicator_net16_nn_15 <= 9
 min_indicator_constr_a_net16_4: min_indicator_net16
   + 5 indicator_net16_ac_15 <= 9
 root_node_match_p_net16_4: - min_indicator_net16 + 4 root_node_net16_pp_15
   <= 0
 root_node_match_n_net16_4: - min_indicator_net16 + 4 root_node_net16_nn_15
   <= 0
 root_node_match_a_net16_4: - min_indicator_net16 + 4 root_node_net16_ac_15
   <= 0
 max_bbox_constr_p_net16_4: max_bbox_net16 - 5 indicator_net16_pp_15 >= -1
 max_bbox_constr_n_net16_4: max_bbox_net16 - 5 indicator_net16_nn_15 >= -1
 max_bbox_constr_a_net16_4: max_bbox_net16 - 5 indicator_net16_ac_15 >= -1
 max_indicator_match_p_net16_4: - max_bbox_net16 >= -4
 max_indicator_match_n_net16_4: - max_bbox_net16 >= -4
 max_indicator_match_a_net16_4: - max_bbox_net16 >= -4
 one_root_node_enable_net16: root_node_net16_pp_3 + root_node_net16_nn_3
   + root_node_net16_ac_3 + root_node_net16_pp_6 + root_node_net16_nn_6
   + root_node_net16_ac_6 + root_node_net16_pp_9 + root_node_net16_nn_9
   + root_node_net16_ac_9 + root_node_net16_pp_12 + root_node_net16_nn_12
   + root_node_net16_ac_12 + root_node_net16_pp_15 + root_node_net16_nn_15
   + root_node_net16_ac_15 = 1
 one_max_indicator_enable_net16: max_indicator_net16_pp_3
   + max_indicator_net16_nn_3 + max_indicator_net16_ac_3
   + max_indicator_net16_pp_6 + max_indicator_net16_nn_6
   + max_indicator_net16_ac_6 + max_indicator_net16_pp_9
   + max_indicator_net16_nn_9 + max_indicator_net16_ac_9
   + max_indicator_net16_pp_12 + max_indicator_net16_nn_12
   + max_indicator_net16_ac_12 + max_indicator_net16_pp_15
   + max_indicator_net16_nn_15 + max_indicator_net16_ac_15 = 1
 y_detector_dtermine_lb_net16_nv_12: - indicator_net16_pp_3
   - indicator_net16_nn_3 - indicator_net16_ac_3 - indicator_net16_pp_6
   - indicator_net16_nn_6 - indicator_net16_ac_6 - indicator_net16_pp_9
   - indicator_net16_nn_9 - indicator_net16_ac_9 - indicator_net16_pp_12
   - indicator_net16_nn_12 - indicator_net16_ac_12 - indicator_net16_pp_15
   - indicator_net16_nn_15 - indicator_net16_ac_15 + 5 io_detector_net16
   >= -1
 y_detector_dtermine_ub_net16_nv_12: - indicator_net16_pp_3
   - indicator_net16_nn_3 - indicator_net16_ac_3 - indicator_net16_pp_6
   - indicator_net16_nn_6 - indicator_net16_ac_6 - indicator_net16_pp_9
   - indicator_net16_nn_9 - indicator_net16_ac_9 - indicator_net16_pp_12
   - indicator_net16_nn_12 - indicator_net16_ac_12 - indicator_net16_pp_15
   - indicator_net16_nn_15 - indicator_net16_ac_15 + io_detector_net16
   <= -1
 on_off_constraint_by_indicator_net16_pv_3_pp_3_co: - indicator_net16_pp_3
   + y_net16_edge_connector_pv_3_pp_3_co <= 0
 on_off_constraint_by_sum_actives_net16_pv_3_pp_3_co: - io_detector_net16
   + y_net16_edge_connector_pv_3_pp_3_co <= 0
 on_off_constraint_by_mixing_net16_pv_3_pp_3_co: - indicator_net16_pp_3
   - io_detector_net16 + y_net16_edge_connector_pv_3_pp_3_co >= -1
 edge_flow_ub_net16_pv_3_pp_3_ve: - y_net16_edge_connector_pv_3_pp_3_co
   + f_net16_edge_connector_pv_3_pp_3_co <= 0
 edge_flow_lb_net16_pv_3_pp_3_ve: y_net16_edge_connector_pv_3_pp_3_co
   + f_net16_edge_connector_pv_3_pp_3_co >= 0
 on_off_constraint_by_indicator_net16_pv_3_ac_3_co: - indicator_net16_ac_3
   + y_net16_edge_connector_pv_3_ac_3_co <= 0
 on_off_constraint_by_sum_actives_net16_pv_3_ac_3_co: - io_detector_net16
   + y_net16_edge_connector_pv_3_ac_3_co <= 0
 on_off_constraint_by_mixing_net16_pv_3_ac_3_co: - indicator_net16_ac_3
   - io_detector_net16 + y_net16_edge_connector_pv_3_ac_3_co >= -1
 edge_flow_ub_net16_pv_3_ac_3_ve: - y_net16_edge_connector_pv_3_ac_3_co
   + f_net16_edge_connector_pv_3_ac_3_co <= 0
 edge_flow_lb_net16_pv_3_ac_3_ve: y_net16_edge_connector_pv_3_ac_3_co
   + f_net16_edge_connector_pv_3_ac_3_co >= 0
 on_off_constraint_by_indicator_net16_nv_3_nn_3_co: - indicator_net16_nn_3
   + y_net16_edge_connector_nv_3_nn_3_co <= 0
 on_off_constraint_by_sum_actives_net16_nv_3_nn_3_co: - io_detector_net16
   + y_net16_edge_connector_nv_3_nn_3_co <= 0
 on_off_constraint_by_mixing_net16_nv_3_nn_3_co: - indicator_net16_nn_3
   - io_detector_net16 + y_net16_edge_connector_nv_3_nn_3_co >= -1
 edge_flow_ub_net16_nv_3_nn_3_ve: - y_net16_edge_connector_nv_3_nn_3_co
   + f_net16_edge_connector_nv_3_nn_3_co <= 0
 edge_flow_lb_net16_nv_3_nn_3_ve: y_net16_edge_connector_nv_3_nn_3_co
   + f_net16_edge_connector_nv_3_nn_3_co >= 0
 on_off_constraint_by_indicator_net16_nv_3_ac_3_co: - indicator_net16_ac_3
   + y_net16_edge_connector_nv_3_ac_3_co <= 0
 on_off_constraint_by_sum_actives_net16_nv_3_ac_3_co: - io_detector_net16
   + y_net16_edge_connector_nv_3_ac_3_co <= 0
 on_off_constraint_by_mixing_net16_nv_3_ac_3_co: - indicator_net16_ac_3
   - io_detector_net16 + y_net16_edge_connector_nv_3_ac_3_co >= -1
 edge_flow_ub_net16_nv_3_ac_3_ve: - y_net16_edge_connector_nv_3_ac_3_co
   + f_net16_edge_connector_nv_3_ac_3_co <= 0
 edge_flow_lb_net16_nv_3_ac_3_ve: y_net16_edge_connector_nv_3_ac_3_co
   + f_net16_edge_connector_nv_3_ac_3_co >= 0
 on_off_constraint_by_indicator_net16_pv_6_pp_6_co: - indicator_net16_pp_6
   + y_net16_edge_connector_pv_6_pp_6_co <= 0
 on_off_constraint_by_sum_actives_net16_pv_6_pp_6_co: - io_detector_net16
   + y_net16_edge_connector_pv_6_pp_6_co <= 0
 on_off_constraint_by_mixing_net16_pv_6_pp_6_co: - indicator_net16_pp_6
   - io_detector_net16 + y_net16_edge_connector_pv_6_pp_6_co >= -1
 edge_flow_ub_net16_pv_6_pp_6_ve: - y_net16_edge_connector_pv_6_pp_6_co
   + f_net16_edge_connector_pv_6_pp_6_co <= 0
 edge_flow_lb_net16_pv_6_pp_6_ve: y_net16_edge_connector_pv_6_pp_6_co
   + f_net16_edge_connector_pv_6_pp_6_co >= 0
 on_off_constraint_by_indicator_net16_pv_6_ac_6_co: - indicator_net16_ac_6
   + y_net16_edge_connector_pv_6_ac_6_co <= 0
 on_off_constraint_by_sum_actives_net16_pv_6_ac_6_co: - io_detector_net16
   + y_net16_edge_connector_pv_6_ac_6_co <= 0
 on_off_constraint_by_mixing_net16_pv_6_ac_6_co: - indicator_net16_ac_6
   - io_detector_net16 + y_net16_edge_connector_pv_6_ac_6_co >= -1
 edge_flow_ub_net16_pv_6_ac_6_ve: - y_net16_edge_connector_pv_6_ac_6_co
   + f_net16_edge_connector_pv_6_ac_6_co <= 0
 edge_flow_lb_net16_pv_6_ac_6_ve: y_net16_edge_connector_pv_6_ac_6_co
   + f_net16_edge_connector_pv_6_ac_6_co >= 0
 on_off_constraint_by_indicator_net16_nv_6_nn_6_co: - indicator_net16_nn_6
   + y_net16_edge_connector_nv_6_nn_6_co <= 0
 on_off_constraint_by_sum_actives_net16_nv_6_nn_6_co: - io_detector_net16
   + y_net16_edge_connector_nv_6_nn_6_co <= 0
 on_off_constraint_by_mixing_net16_nv_6_nn_6_co: - indicator_net16_nn_6
   - io_detector_net16 + y_net16_edge_connector_nv_6_nn_6_co >= -1
 edge_flow_ub_net16_nv_6_nn_6_ve: - y_net16_edge_connector_nv_6_nn_6_co
   + f_net16_edge_connector_nv_6_nn_6_co <= 0
 edge_flow_lb_net16_nv_6_nn_6_ve: y_net16_edge_connector_nv_6_nn_6_co
   + f_net16_edge_connector_nv_6_nn_6_co >= 0
 on_off_constraint_by_indicator_net16_nv_6_ac_6_co: - indicator_net16_ac_6
   + y_net16_edge_connector_nv_6_ac_6_co <= 0
 on_off_constraint_by_sum_actives_net16_nv_6_ac_6_co: - io_detector_net16
   + y_net16_edge_connector_nv_6_ac_6_co <= 0
 on_off_constraint_by_mixing_net16_nv_6_ac_6_co: - indicator_net16_ac_6
   - io_detector_net16 + y_net16_edge_connector_nv_6_ac_6_co >= -1
 edge_flow_ub_net16_nv_6_ac_6_ve: - y_net16_edge_connector_nv_6_ac_6_co
   + f_net16_edge_connector_nv_6_ac_6_co <= 0
 edge_flow_lb_net16_nv_6_ac_6_ve: y_net16_edge_connector_nv_6_ac_6_co
   + f_net16_edge_connector_nv_6_ac_6_co >= 0
 on_off_constraint_by_indicator_net16_pv_9_pp_9_co: - indicator_net16_pp_9
   + y_net16_edge_connector_pv_9_pp_9_co <= 0
 on_off_constraint_by_sum_actives_net16_pv_9_pp_9_co: - io_detector_net16
   + y_net16_edge_connector_pv_9_pp_9_co <= 0
 on_off_constraint_by_mixing_net16_pv_9_pp_9_co: - indicator_net16_pp_9
   - io_detector_net16 + y_net16_edge_connector_pv_9_pp_9_co >= -1
 edge_flow_ub_net16_pv_9_pp_9_ve: - y_net16_edge_connector_pv_9_pp_9_co
   + f_net16_edge_connector_pv_9_pp_9_co <= 0
 edge_flow_lb_net16_pv_9_pp_9_ve: y_net16_edge_connector_pv_9_pp_9_co
   + f_net16_edge_connector_pv_9_pp_9_co >= 0
 on_off_constraint_by_indicator_net16_pv_9_ac_9_co: - indicator_net16_ac_9
   + y_net16_edge_connector_pv_9_ac_9_co <= 0
 on_off_constraint_by_sum_actives_net16_pv_9_ac_9_co: - io_detector_net16
   + y_net16_edge_connector_pv_9_ac_9_co <= 0
 on_off_constraint_by_mixing_net16_pv_9_ac_9_co: - indicator_net16_ac_9
   - io_detector_net16 + y_net16_edge_connector_pv_9_ac_9_co >= -1
 edge_flow_ub_net16_pv_9_ac_9_ve: - y_net16_edge_connector_pv_9_ac_9_co
   + f_net16_edge_connector_pv_9_ac_9_co <= 0
 edge_flow_lb_net16_pv_9_ac_9_ve: y_net16_edge_connector_pv_9_ac_9_co
   + f_net16_edge_connector_pv_9_ac_9_co >= 0
 on_off_constraint_by_indicator_net16_nv_9_nn_9_co: - indicator_net16_nn_9
   + y_net16_edge_connector_nv_9_nn_9_co <= 0
 on_off_constraint_by_sum_actives_net16_nv_9_nn_9_co: - io_detector_net16
   + y_net16_edge_connector_nv_9_nn_9_co <= 0
 on_off_constraint_by_mixing_net16_nv_9_nn_9_co: - indicator_net16_nn_9
   - io_detector_net16 + y_net16_edge_connector_nv_9_nn_9_co >= -1
 edge_flow_ub_net16_nv_9_nn_9_ve: - y_net16_edge_connector_nv_9_nn_9_co
   + f_net16_edge_connector_nv_9_nn_9_co <= 0
 edge_flow_lb_net16_nv_9_nn_9_ve: y_net16_edge_connector_nv_9_nn_9_co
   + f_net16_edge_connector_nv_9_nn_9_co >= 0
 on_off_constraint_by_indicator_net16_nv_9_ac_9_co: - indicator_net16_ac_9
   + y_net16_edge_connector_nv_9_ac_9_co <= 0
 on_off_constraint_by_sum_actives_net16_nv_9_ac_9_co: - io_detector_net16
   + y_net16_edge_connector_nv_9_ac_9_co <= 0
 on_off_constraint_by_mixing_net16_nv_9_ac_9_co: - indicator_net16_ac_9
   - io_detector_net16 + y_net16_edge_connector_nv_9_ac_9_co >= -1
 edge_flow_ub_net16_nv_9_ac_9_ve: - y_net16_edge_connector_nv_9_ac_9_co
   + f_net16_edge_connector_nv_9_ac_9_co <= 0
 edge_flow_lb_net16_nv_9_ac_9_ve: y_net16_edge_connector_nv_9_ac_9_co
   + f_net16_edge_connector_nv_9_ac_9_co >= 0
 on_off_constraint_by_indicator_net16_pv_12_pp_12_co:
   - indicator_net16_pp_12 + y_net16_edge_connector_pv_12_pp_12_co <= 0
 on_off_constraint_by_sum_actives_net16_pv_12_pp_12_co: - io_detector_net16
   + y_net16_edge_connector_pv_12_pp_12_co <= 0
 on_off_constraint_by_mixing_net16_pv_12_pp_12_co: - indicator_net16_pp_12
   - io_detector_net16 + y_net16_edge_connector_pv_12_pp_12_co >= -1
 edge_flow_ub_net16_pv_12_pp_12_ve: - y_net16_edge_connector_pv_12_pp_12_co
   + f_net16_edge_connector_pv_12_pp_12_co <= 0
 edge_flow_lb_net16_pv_12_pp_12_ve: y_net16_edge_connector_pv_12_pp_12_co
   + f_net16_edge_connector_pv_12_pp_12_co >= 0
 on_off_constraint_by_indicator_net16_pv_12_ac_12_co:
   - indicator_net16_ac_12 + y_net16_edge_connector_pv_12_ac_12_co <= 0
 on_off_constraint_by_sum_actives_net16_pv_12_ac_12_co: - io_detector_net16
   + y_net16_edge_connector_pv_12_ac_12_co <= 0
 on_off_constraint_by_mixing_net16_pv_12_ac_12_co: - indicator_net16_ac_12
   - io_detector_net16 + y_net16_edge_connector_pv_12_ac_12_co >= -1
 edge_flow_ub_net16_pv_12_ac_12_ve: - y_net16_edge_connector_pv_12_ac_12_co
   + f_net16_edge_connector_pv_12_ac_12_co <= 0
 edge_flow_lb_net16_pv_12_ac_12_ve: y_net16_edge_connector_pv_12_ac_12_co
   + f_net16_edge_connector_pv_12_ac_12_co >= 0
 on_off_constraint_by_indicator_net16_nv_12_nn_12_co:
   - indicator_net16_nn_12 + y_net16_edge_connector_nv_12_nn_12_co <= 0
 on_off_constraint_by_sum_actives_net16_nv_12_nn_12_co: - io_detector_net16
   + y_net16_edge_connector_nv_12_nn_12_co <= 0
 on_off_constraint_by_mixing_net16_nv_12_nn_12_co: - indicator_net16_nn_12
   - io_detector_net16 + y_net16_edge_connector_nv_12_nn_12_co >= -1
 edge_flow_ub_net16_nv_12_nn_12_ve: - y_net16_edge_connector_nv_12_nn_12_co
   + f_net16_edge_connector_nv_12_nn_12_co <= 0
 edge_flow_lb_net16_nv_12_nn_12_ve: y_net16_edge_connector_nv_12_nn_12_co
   + f_net16_edge_connector_nv_12_nn_12_co >= 0
 on_off_constraint_by_indicator_net16_nv_12_ac_12_co:
   - indicator_net16_ac_12 + y_net16_edge_connector_nv_12_ac_12_co <= 0
 on_off_constraint_by_sum_actives_net16_nv_12_ac_12_co: - io_detector_net16
   + y_net16_edge_connector_nv_12_ac_12_co <= 0
 on_off_constraint_by_mixing_net16_nv_12_ac_12_co: - indicator_net16_ac_12
   - io_detector_net16 + y_net16_edge_connector_nv_12_ac_12_co >= -1
 edge_flow_ub_net16_nv_12_ac_12_ve: - y_net16_edge_connector_nv_12_ac_12_co
   + f_net16_edge_connector_nv_12_ac_12_co <= 0
 edge_flow_lb_net16_nv_12_ac_12_ve: y_net16_edge_connector_nv_12_ac_12_co
   + f_net16_edge_connector_nv_12_ac_12_co >= 0
 on_off_constraint_by_indicator_net16_pv_15_pp_15_co:
   - indicator_net16_pp_15 + y_net16_edge_connector_pv_15_pp_15_co <= 0
 on_off_constraint_by_sum_actives_net16_pv_15_pp_15_co: - io_detector_net16
   + y_net16_edge_connector_pv_15_pp_15_co <= 0
 on_off_constraint_by_mixing_net16_pv_15_pp_15_co: - indicator_net16_pp_15
   - io_detector_net16 + y_net16_edge_connector_pv_15_pp_15_co >= -1
 edge_flow_ub_net16_pv_15_pp_15_ve: - y_net16_edge_connector_pv_15_pp_15_co
   + f_net16_edge_connector_pv_15_pp_15_co <= 0
 edge_flow_lb_net16_pv_15_pp_15_ve: y_net16_edge_connector_pv_15_pp_15_co
   + f_net16_edge_connector_pv_15_pp_15_co >= 0
 on_off_constraint_by_indicator_net16_pv_15_ac_15_co:
   - indicator_net16_ac_15 + y_net16_edge_connector_pv_15_ac_15_co <= 0
 on_off_constraint_by_sum_actives_net16_pv_15_ac_15_co: - io_detector_net16
   + y_net16_edge_connector_pv_15_ac_15_co <= 0
 on_off_constraint_by_mixing_net16_pv_15_ac_15_co: - indicator_net16_ac_15
   - io_detector_net16 + y_net16_edge_connector_pv_15_ac_15_co >= -1
 edge_flow_ub_net16_pv_15_ac_15_ve: - y_net16_edge_connector_pv_15_ac_15_co
   + f_net16_edge_connector_pv_15_ac_15_co <= 0
 edge_flow_lb_net16_pv_15_ac_15_ve: y_net16_edge_connector_pv_15_ac_15_co
   + f_net16_edge_connector_pv_15_ac_15_co >= 0
 on_off_constraint_by_indicator_net16_nv_15_nn_15_co:
   - indicator_net16_nn_15 + y_net16_edge_connector_nv_15_nn_15_co <= 0
 on_off_constraint_by_sum_actives_net16_nv_15_nn_15_co: - io_detector_net16
   + y_net16_edge_connector_nv_15_nn_15_co <= 0
 on_off_constraint_by_mixing_net16_nv_15_nn_15_co: - indicator_net16_nn_15
   - io_detector_net16 + y_net16_edge_connector_nv_15_nn_15_co >= -1
 edge_flow_ub_net16_nv_15_nn_15_ve: - y_net16_edge_connector_nv_15_nn_15_co
   + f_net16_edge_connector_nv_15_nn_15_co <= 0
 edge_flow_lb_net16_nv_15_nn_15_ve: y_net16_edge_connector_nv_15_nn_15_co
   + f_net16_edge_connector_nv_15_nn_15_co >= 0
 on_off_constraint_by_indicator_net16_nv_15_ac_15_co:
   - indicator_net16_ac_15 + y_net16_edge_connector_nv_15_ac_15_co <= 0
 on_off_constraint_by_sum_actives_net16_nv_15_ac_15_co: - io_detector_net16
   + y_net16_edge_connector_nv_15_ac_15_co <= 0
 on_off_constraint_by_mixing_net16_nv_15_ac_15_co: - indicator_net16_ac_15
   - io_detector_net16 + y_net16_edge_connector_nv_15_ac_15_co >= -1
 edge_flow_ub_net16_nv_15_ac_15_ve: - y_net16_edge_connector_nv_15_ac_15_co
   + f_net16_edge_connector_nv_15_ac_15_co <= 0
 edge_flow_lb_net16_nv_15_ac_15_ve: y_net16_edge_connector_nv_15_ac_15_co
   + f_net16_edge_connector_nv_15_ac_15_co >= 0
 row_selection_on_off_rule1_net16_pp_3: - 2 indicator_net16_pp_3
   + c_mar_row_net16_pp_3_r[3] + c_mar_row_net16_pp_3_r[2] <= 0
 row_selection_on_off_rule2_net16_pp_3: - 2 io_detector_net16
   + c_mar_row_net16_pp_3_r[3] + c_mar_row_net16_pp_3_r[2] <= 0
 row_selection_on_off_rule3_net16_pp_3: - indicator_net16_pp_3
   - io_detector_net16 + c_mar_row_net16_pp_3_r[3]
   + c_mar_row_net16_pp_3_r[2] >= -1
 case_selection_on_off_rule1_net16_pp_3_3: - c_mar_row_net16_pp_3_r[3]
   + c_mar_row_net16_pp_3_3_case[0] <= 0
 case_selection_on_off_rule2_net16_pp_3_3: - c_mar_row_net16_pp_3_r[3]
   + c_mar_row_net16_pp_3_3_case[0] >= 0
 mar_constraint_net16_pp_3_3_left_edge: - t_net16_c_r[0,3]
   + c_mar_row_net16_pp_3_3_case[0] <= 0
 mar_constraint_net16_pp_3_3_real_metal: - t_net16_c_r[1,3]
   + c_mar_row_net16_pp_3_3_case[0] <= 0
 mar_constraint_net16_pp_3_3_right_edge: - t_eol_c_r[2,3]
   - t_net16_c_r[2,3] + c_mar_row_net16_pp_3_3_case[0] <= 0
 case_selection_on_off_rule1_net16_pp_3_2: - c_mar_row_net16_pp_3_r[2]
   + c_mar_row_net16_pp_3_2_case[0] <= 0
 case_selection_on_off_rule2_net16_pp_3_2: - c_mar_row_net16_pp_3_r[2]
   + c_mar_row_net16_pp_3_2_case[0] >= 0
 mar_constraint_net16_pp_3_2_left_edge: - t_net16_c_r[0,2]
   + c_mar_row_net16_pp_3_2_case[0] <= 0
 mar_constraint_net16_pp_3_2_real_metal: - t_net16_c_r[1,2]
   + c_mar_row_net16_pp_3_2_case[0] <= 0
 mar_constraint_net16_pp_3_2_right_edge: - t_eol_c_r[2,2]
   - t_net16_c_r[2,2] + c_mar_row_net16_pp_3_2_case[0] <= 0
 row_selection_on_off_rule1_net16_nn_3: - 2 indicator_net16_nn_3
   + c_mar_row_net16_nn_3_r[1] + c_mar_row_net16_nn_3_r[0] <= 0
 row_selection_on_off_rule2_net16_nn_3: - 2 io_detector_net16
   + c_mar_row_net16_nn_3_r[1] + c_mar_row_net16_nn_3_r[0] <= 0
 row_selection_on_off_rule3_net16_nn_3: - indicator_net16_nn_3
   - io_detector_net16 + c_mar_row_net16_nn_3_r[1]
   + c_mar_row_net16_nn_3_r[0] >= -1
 case_selection_on_off_rule1_net16_nn_3_1: - c_mar_row_net16_nn_3_r[1]
   + c_mar_row_net16_nn_3_1_case[0] <= 0
 case_selection_on_off_rule2_net16_nn_3_1: - c_mar_row_net16_nn_3_r[1]
   + c_mar_row_net16_nn_3_1_case[0] >= 0
 mar_constraint_net16_nn_3_1_left_edge: - t_net16_c_r[0,1]
   + c_mar_row_net16_nn_3_1_case[0] <= 0
 mar_constraint_net16_nn_3_1_real_metal: - t_net16_c_r[1,1]
   + c_mar_row_net16_nn_3_1_case[0] <= 0
 mar_constraint_net16_nn_3_1_right_edge: - t_eol_c_r[2,1]
   - t_net16_c_r[2,1] + c_mar_row_net16_nn_3_1_case[0] <= 0
 case_selection_on_off_rule1_net16_nn_3_0: - c_mar_row_net16_nn_3_r[0]
   + c_mar_row_net16_nn_3_0_case[0] <= 0
 case_selection_on_off_rule2_net16_nn_3_0: - c_mar_row_net16_nn_3_r[0]
   + c_mar_row_net16_nn_3_0_case[0] >= 0
 mar_constraint_net16_nn_3_0_left_edge: - t_net16_c_r[0,0]
   + c_mar_row_net16_nn_3_0_case[0] <= 0
 mar_constraint_net16_nn_3_0_real_metal: - t_net16_c_r[1,0]
   + c_mar_row_net16_nn_3_0_case[0] <= 0
 mar_constraint_net16_nn_3_0_right_edge: - t_eol_c_r[2,0]
   - t_net16_c_r[2,0] + c_mar_row_net16_nn_3_0_case[0] <= 0
 row_selection_on_off_rule1_net16_ac_3: - 4 indicator_net16_ac_3
   + c_mar_row_net16_ac_3_r[3] + c_mar_row_net16_ac_3_r[2]
   + c_mar_row_net16_ac_3_r[1] + c_mar_row_net16_ac_3_r[0] <= 0
 row_selection_on_off_rule2_net16_ac_3: - 4 io_detector_net16
   + c_mar_row_net16_ac_3_r[3] + c_mar_row_net16_ac_3_r[2]
   + c_mar_row_net16_ac_3_r[1] + c_mar_row_net16_ac_3_r[0] <= 0
 row_selection_on_off_rule3_net16_ac_3: - indicator_net16_ac_3
   - io_detector_net16 + c_mar_row_net16_ac_3_r[3]
   + c_mar_row_net16_ac_3_r[2] + c_mar_row_net16_ac_3_r[1]
   + c_mar_row_net16_ac_3_r[0] >= -1
 case_selection_on_off_rule1_net16_ac_3_3: - c_mar_row_net16_ac_3_r[3]
   + c_mar_row_net16_ac_3_3_case[0] <= 0
 case_selection_on_off_rule2_net16_ac_3_3: - c_mar_row_net16_ac_3_r[3]
   + c_mar_row_net16_ac_3_3_case[0] >= 0
 mar_constraint_net16_ac_3_3_left_edge: - t_net16_c_r[0,3]
   + c_mar_row_net16_ac_3_3_case[0] <= 0
 mar_constraint_net16_ac_3_3_real_metal: - t_net16_c_r[1,3]
   + c_mar_row_net16_ac_3_3_case[0] <= 0
 mar_constraint_net16_ac_3_3_right_edge: - t_eol_c_r[2,3]
   - t_net16_c_r[2,3] + c_mar_row_net16_ac_3_3_case[0] <= 0
 case_selection_on_off_rule1_net16_ac_3_2: - c_mar_row_net16_ac_3_r[2]
   + c_mar_row_net16_ac_3_2_case[0] <= 0
 case_selection_on_off_rule2_net16_ac_3_2: - c_mar_row_net16_ac_3_r[2]
   + c_mar_row_net16_ac_3_2_case[0] >= 0
 mar_constraint_net16_ac_3_2_left_edge: - t_net16_c_r[0,2]
   + c_mar_row_net16_ac_3_2_case[0] <= 0
 mar_constraint_net16_ac_3_2_real_metal: - t_net16_c_r[1,2]
   + c_mar_row_net16_ac_3_2_case[0] <= 0
 mar_constraint_net16_ac_3_2_right_edge: - t_eol_c_r[2,2]
   - t_net16_c_r[2,2] + c_mar_row_net16_ac_3_2_case[0] <= 0
 case_selection_on_off_rule1_net16_ac_3_1: - c_mar_row_net16_ac_3_r[1]
   + c_mar_row_net16_ac_3_1_case[0] <= 0
 case_selection_on_off_rule2_net16_ac_3_1: - c_mar_row_net16_ac_3_r[1]
   + c_mar_row_net16_ac_3_1_case[0] >= 0
 mar_constraint_net16_ac_3_1_left_edge: - t_net16_c_r[0,1]
   + c_mar_row_net16_ac_3_1_case[0] <= 0
 mar_constraint_net16_ac_3_1_real_metal: - t_net16_c_r[1,1]
   + c_mar_row_net16_ac_3_1_case[0] <= 0
 mar_constraint_net16_ac_3_1_right_edge: - t_eol_c_r[2,1]
   - t_net16_c_r[2,1] + c_mar_row_net16_ac_3_1_case[0] <= 0
 case_selection_on_off_rule1_net16_ac_3_0: - c_mar_row_net16_ac_3_r[0]
   + c_mar_row_net16_ac_3_0_case[0] <= 0
 case_selection_on_off_rule2_net16_ac_3_0: - c_mar_row_net16_ac_3_r[0]
   + c_mar_row_net16_ac_3_0_case[0] >= 0
 mar_constraint_net16_ac_3_0_left_edge: - t_net16_c_r[0,0]
   + c_mar_row_net16_ac_3_0_case[0] <= 0
 mar_constraint_net16_ac_3_0_real_metal: - t_net16_c_r[1,0]
   + c_mar_row_net16_ac_3_0_case[0] <= 0
 mar_constraint_net16_ac_3_0_right_edge: - t_eol_c_r[2,0]
   - t_net16_c_r[2,0] + c_mar_row_net16_ac_3_0_case[0] <= 0
 row_selection_on_off_rule1_net16_pp_6: - 2 indicator_net16_pp_6
   + c_mar_row_net16_pp_6_r[3] + c_mar_row_net16_pp_6_r[2] <= 0
 row_selection_on_off_rule2_net16_pp_6: - 2 io_detector_net16
   + c_mar_row_net16_pp_6_r[3] + c_mar_row_net16_pp_6_r[2] <= 0
 row_selection_on_off_rule3_net16_pp_6: - indicator_net16_pp_6
   - io_detector_net16 + c_mar_row_net16_pp_6_r[3]
   + c_mar_row_net16_pp_6_r[2] >= -1
 case_selection_on_off_rule1_net16_pp_6_3: - c_mar_row_net16_pp_6_r[3]
   + c_mar_row_net16_pp_6_3_case[0] + c_mar_row_net16_pp_6_3_case[1] <= 0
 case_selection_on_off_rule2_net16_pp_6_3: - c_mar_row_net16_pp_6_r[3]
   + c_mar_row_net16_pp_6_3_case[0] + c_mar_row_net16_pp_6_3_case[1] >= 0
 mar_constraint_net16_pp_6_3_left_edge: - t_net16_c_r[0,3]
   + c_mar_row_net16_pp_6_3_case[0] <= 0
 mar_constraint_net16_pp_6_3_real_metal: - t_net16_c_r[1,3]
   + c_mar_row_net16_pp_6_3_case[0] <= 0
 mar_constraint_net16_pp_6_3_right_edge: - t_eol_c_r[2,3]
   - t_net16_c_r[2,3] + c_mar_row_net16_pp_6_3_case[0] <= 0
 mar_constraint_net16_pp_6_3_left_edge: - t_eol_c_r[0,3] - t_net16_c_r[0,3]
   + c_mar_row_net16_pp_6_3_case[1] <= 0
 mar_constraint_net16_pp_6_3_real_metal: - t_net16_c_r[1,3]
   + c_mar_row_net16_pp_6_3_case[1] <= 0
 mar_constraint_net16_pp_6_3_real_metal: - t_net16_c_r[2,3]
   + c_mar_row_net16_pp_6_3_case[1] <= 0
 mar_constraint_net16_pp_6_3_right_edge: - t_eol_c_r[3,3]
   - t_net16_c_r[3,3] + c_mar_row_net16_pp_6_3_case[1] <= 0
 case_selection_on_off_rule1_net16_pp_6_2: - c_mar_row_net16_pp_6_r[2]
   + c_mar_row_net16_pp_6_2_case[0] + c_mar_row_net16_pp_6_2_case[1] <= 0
 case_selection_on_off_rule2_net16_pp_6_2: - c_mar_row_net16_pp_6_r[2]
   + c_mar_row_net16_pp_6_2_case[0] + c_mar_row_net16_pp_6_2_case[1] >= 0
 mar_constraint_net16_pp_6_2_left_edge: - t_net16_c_r[0,2]
   + c_mar_row_net16_pp_6_2_case[0] <= 0
 mar_constraint_net16_pp_6_2_real_metal: - t_net16_c_r[1,2]
   + c_mar_row_net16_pp_6_2_case[0] <= 0
 mar_constraint_net16_pp_6_2_right_edge: - t_eol_c_r[2,2]
   - t_net16_c_r[2,2] + c_mar_row_net16_pp_6_2_case[0] <= 0
 mar_constraint_net16_pp_6_2_left_edge: - t_eol_c_r[0,2] - t_net16_c_r[0,2]
   + c_mar_row_net16_pp_6_2_case[1] <= 0
 mar_constraint_net16_pp_6_2_real_metal: - t_net16_c_r[1,2]
   + c_mar_row_net16_pp_6_2_case[1] <= 0
 mar_constraint_net16_pp_6_2_real_metal: - t_net16_c_r[2,2]
   + c_mar_row_net16_pp_6_2_case[1] <= 0
 mar_constraint_net16_pp_6_2_right_edge: - t_eol_c_r[3,2]
   - t_net16_c_r[3,2] + c_mar_row_net16_pp_6_2_case[1] <= 0
 row_selection_on_off_rule1_net16_nn_6: - 2 indicator_net16_nn_6
   + c_mar_row_net16_nn_6_r[1] + c_mar_row_net16_nn_6_r[0] <= 0
 row_selection_on_off_rule2_net16_nn_6: - 2 io_detector_net16
   + c_mar_row_net16_nn_6_r[1] + c_mar_row_net16_nn_6_r[0] <= 0
 row_selection_on_off_rule3_net16_nn_6: - indicator_net16_nn_6
   - io_detector_net16 + c_mar_row_net16_nn_6_r[1]
   + c_mar_row_net16_nn_6_r[0] >= -1
 case_selection_on_off_rule1_net16_nn_6_1: - c_mar_row_net16_nn_6_r[1]
   + c_mar_row_net16_nn_6_1_case[0] + c_mar_row_net16_nn_6_1_case[1] <= 0
 case_selection_on_off_rule2_net16_nn_6_1: - c_mar_row_net16_nn_6_r[1]
   + c_mar_row_net16_nn_6_1_case[0] + c_mar_row_net16_nn_6_1_case[1] >= 0
 mar_constraint_net16_nn_6_1_left_edge: - t_net16_c_r[0,1]
   + c_mar_row_net16_nn_6_1_case[0] <= 0
 mar_constraint_net16_nn_6_1_real_metal: - t_net16_c_r[1,1]
   + c_mar_row_net16_nn_6_1_case[0] <= 0
 mar_constraint_net16_nn_6_1_right_edge: - t_eol_c_r[2,1]
   - t_net16_c_r[2,1] + c_mar_row_net16_nn_6_1_case[0] <= 0
 mar_constraint_net16_nn_6_1_left_edge: - t_eol_c_r[0,1] - t_net16_c_r[0,1]
   + c_mar_row_net16_nn_6_1_case[1] <= 0
 mar_constraint_net16_nn_6_1_real_metal: - t_net16_c_r[1,1]
   + c_mar_row_net16_nn_6_1_case[1] <= 0
 mar_constraint_net16_nn_6_1_real_metal: - t_net16_c_r[2,1]
   + c_mar_row_net16_nn_6_1_case[1] <= 0
 mar_constraint_net16_nn_6_1_right_edge: - t_eol_c_r[3,1]
   - t_net16_c_r[3,1] + c_mar_row_net16_nn_6_1_case[1] <= 0
 case_selection_on_off_rule1_net16_nn_6_0: - c_mar_row_net16_nn_6_r[0]
   + c_mar_row_net16_nn_6_0_case[0] + c_mar_row_net16_nn_6_0_case[1] <= 0
 case_selection_on_off_rule2_net16_nn_6_0: - c_mar_row_net16_nn_6_r[0]
   + c_mar_row_net16_nn_6_0_case[0] + c_mar_row_net16_nn_6_0_case[1] >= 0
 mar_constraint_net16_nn_6_0_left_edge: - t_net16_c_r[0,0]
   + c_mar_row_net16_nn_6_0_case[0] <= 0
 mar_constraint_net16_nn_6_0_real_metal: - t_net16_c_r[1,0]
   + c_mar_row_net16_nn_6_0_case[0] <= 0
 mar_constraint_net16_nn_6_0_right_edge: - t_eol_c_r[2,0]
   - t_net16_c_r[2,0] + c_mar_row_net16_nn_6_0_case[0] <= 0
 mar_constraint_net16_nn_6_0_left_edge: - t_eol_c_r[0,0] - t_net16_c_r[0,0]
   + c_mar_row_net16_nn_6_0_case[1] <= 0
 mar_constraint_net16_nn_6_0_real_metal: - t_net16_c_r[1,0]
   + c_mar_row_net16_nn_6_0_case[1] <= 0
 mar_constraint_net16_nn_6_0_real_metal: - t_net16_c_r[2,0]
   + c_mar_row_net16_nn_6_0_case[1] <= 0
 mar_constraint_net16_nn_6_0_right_edge: - t_eol_c_r[3,0]
   - t_net16_c_r[3,0] + c_mar_row_net16_nn_6_0_case[1] <= 0
 row_selection_on_off_rule1_net16_ac_6: - 4 indicator_net16_ac_6
   + c_mar_row_net16_ac_6_r[3] + c_mar_row_net16_ac_6_r[2]
   + c_mar_row_net16_ac_6_r[1] + c_mar_row_net16_ac_6_r[0] <= 0
 row_selection_on_off_rule2_net16_ac_6: - 4 io_detector_net16
   + c_mar_row_net16_ac_6_r[3] + c_mar_row_net16_ac_6_r[2]
   + c_mar_row_net16_ac_6_r[1] + c_mar_row_net16_ac_6_r[0] <= 0
 row_selection_on_off_rule3_net16_ac_6: - indicator_net16_ac_6
   - io_detector_net16 + c_mar_row_net16_ac_6_r[3]
   + c_mar_row_net16_ac_6_r[2] + c_mar_row_net16_ac_6_r[1]
   + c_mar_row_net16_ac_6_r[0] >= -1
 case_selection_on_off_rule1_net16_ac_6_3: - c_mar_row_net16_ac_6_r[3]
   + c_mar_row_net16_ac_6_3_case[0] + c_mar_row_net16_ac_6_3_case[1] <= 0
 case_selection_on_off_rule2_net16_ac_6_3: - c_mar_row_net16_ac_6_r[3]
   + c_mar_row_net16_ac_6_3_case[0] + c_mar_row_net16_ac_6_3_case[1] >= 0
 mar_constraint_net16_ac_6_3_left_edge: - t_net16_c_r[0,3]
   + c_mar_row_net16_ac_6_3_case[0] <= 0
 mar_constraint_net16_ac_6_3_real_metal: - t_net16_c_r[1,3]
   + c_mar_row_net16_ac_6_3_case[0] <= 0
 mar_constraint_net16_ac_6_3_right_edge: - t_eol_c_r[2,3]
   - t_net16_c_r[2,3] + c_mar_row_net16_ac_6_3_case[0] <= 0
 mar_constraint_net16_ac_6_3_left_edge: - t_eol_c_r[0,3] - t_net16_c_r[0,3]
   + c_mar_row_net16_ac_6_3_case[1] <= 0
 mar_constraint_net16_ac_6_3_real_metal: - t_net16_c_r[1,3]
   + c_mar_row_net16_ac_6_3_case[1] <= 0
 mar_constraint_net16_ac_6_3_real_metal: - t_net16_c_r[2,3]
   + c_mar_row_net16_ac_6_3_case[1] <= 0
 mar_constraint_net16_ac_6_3_right_edge: - t_eol_c_r[3,3]
   - t_net16_c_r[3,3] + c_mar_row_net16_ac_6_3_case[1] <= 0
 case_selection_on_off_rule1_net16_ac_6_2: - c_mar_row_net16_ac_6_r[2]
   + c_mar_row_net16_ac_6_2_case[0] + c_mar_row_net16_ac_6_2_case[1] <= 0
 case_selection_on_off_rule2_net16_ac_6_2: - c_mar_row_net16_ac_6_r[2]
   + c_mar_row_net16_ac_6_2_case[0] + c_mar_row_net16_ac_6_2_case[1] >= 0
 mar_constraint_net16_ac_6_2_left_edge: - t_net16_c_r[0,2]
   + c_mar_row_net16_ac_6_2_case[0] <= 0
 mar_constraint_net16_ac_6_2_real_metal: - t_net16_c_r[1,2]
   + c_mar_row_net16_ac_6_2_case[0] <= 0
 mar_constraint_net16_ac_6_2_right_edge: - t_eol_c_r[2,2]
   - t_net16_c_r[2,2] + c_mar_row_net16_ac_6_2_case[0] <= 0
 mar_constraint_net16_ac_6_2_left_edge: - t_eol_c_r[0,2] - t_net16_c_r[0,2]
   + c_mar_row_net16_ac_6_2_case[1] <= 0
 mar_constraint_net16_ac_6_2_real_metal: - t_net16_c_r[1,2]
   + c_mar_row_net16_ac_6_2_case[1] <= 0
 mar_constraint_net16_ac_6_2_real_metal: - t_net16_c_r[2,2]
   + c_mar_row_net16_ac_6_2_case[1] <= 0
 mar_constraint_net16_ac_6_2_right_edge: - t_eol_c_r[3,2]
   - t_net16_c_r[3,2] + c_mar_row_net16_ac_6_2_case[1] <= 0
 case_selection_on_off_rule1_net16_ac_6_1: - c_mar_row_net16_ac_6_r[1]
   + c_mar_row_net16_ac_6_1_case[0] + c_mar_row_net16_ac_6_1_case[1] <= 0
 case_selection_on_off_rule2_net16_ac_6_1: - c_mar_row_net16_ac_6_r[1]
   + c_mar_row_net16_ac_6_1_case[0] + c_mar_row_net16_ac_6_1_case[1] >= 0
 mar_constraint_net16_ac_6_1_left_edge: - t_net16_c_r[0,1]
   + c_mar_row_net16_ac_6_1_case[0] <= 0
 mar_constraint_net16_ac_6_1_real_metal: - t_net16_c_r[1,1]
   + c_mar_row_net16_ac_6_1_case[0] <= 0
 mar_constraint_net16_ac_6_1_right_edge: - t_eol_c_r[2,1]
   - t_net16_c_r[2,1] + c_mar_row_net16_ac_6_1_case[0] <= 0
 mar_constraint_net16_ac_6_1_left_edge: - t_eol_c_r[0,1] - t_net16_c_r[0,1]
   + c_mar_row_net16_ac_6_1_case[1] <= 0
 mar_constraint_net16_ac_6_1_real_metal: - t_net16_c_r[1,1]
   + c_mar_row_net16_ac_6_1_case[1] <= 0
 mar_constraint_net16_ac_6_1_real_metal: - t_net16_c_r[2,1]
   + c_mar_row_net16_ac_6_1_case[1] <= 0
 mar_constraint_net16_ac_6_1_right_edge: - t_eol_c_r[3,1]
   - t_net16_c_r[3,1] + c_mar_row_net16_ac_6_1_case[1] <= 0
 case_selection_on_off_rule1_net16_ac_6_0: - c_mar_row_net16_ac_6_r[0]
   + c_mar_row_net16_ac_6_0_case[0] + c_mar_row_net16_ac_6_0_case[1] <= 0
 case_selection_on_off_rule2_net16_ac_6_0: - c_mar_row_net16_ac_6_r[0]
   + c_mar_row_net16_ac_6_0_case[0] + c_mar_row_net16_ac_6_0_case[1] >= 0
 mar_constraint_net16_ac_6_0_left_edge: - t_net16_c_r[0,0]
   + c_mar_row_net16_ac_6_0_case[0] <= 0
 mar_constraint_net16_ac_6_0_real_metal: - t_net16_c_r[1,0]
   + c_mar_row_net16_ac_6_0_case[0] <= 0
 mar_constraint_net16_ac_6_0_right_edge: - t_eol_c_r[2,0]
   - t_net16_c_r[2,0] + c_mar_row_net16_ac_6_0_case[0] <= 0
 mar_constraint_net16_ac_6_0_left_edge: - t_eol_c_r[0,0] - t_net16_c_r[0,0]
   + c_mar_row_net16_ac_6_0_case[1] <= 0
 mar_constraint_net16_ac_6_0_real_metal: - t_net16_c_r[1,0]
   + c_mar_row_net16_ac_6_0_case[1] <= 0
 mar_constraint_net16_ac_6_0_real_metal: - t_net16_c_r[2,0]
   + c_mar_row_net16_ac_6_0_case[1] <= 0
 mar_constraint_net16_ac_6_0_right_edge: - t_eol_c_r[3,0]
   - t_net16_c_r[3,0] + c_mar_row_net16_ac_6_0_case[1] <= 0
 row_selection_on_off_rule1_net16_pp_9: - 2 indicator_net16_pp_9
   + c_mar_row_net16_pp_9_r[3] + c_mar_row_net16_pp_9_r[2] <= 0
 row_selection_on_off_rule2_net16_pp_9: - 2 io_detector_net16
   + c_mar_row_net16_pp_9_r[3] + c_mar_row_net16_pp_9_r[2] <= 0
 row_selection_on_off_rule3_net16_pp_9: - indicator_net16_pp_9
   - io_detector_net16 + c_mar_row_net16_pp_9_r[3]
   + c_mar_row_net16_pp_9_r[2] >= -1
 case_selection_on_off_rule1_net16_pp_9_3: - c_mar_row_net16_pp_9_r[3]
   + c_mar_row_net16_pp_9_3_case[0] + c_mar_row_net16_pp_9_3_case[1] <= 0
 case_selection_on_off_rule2_net16_pp_9_3: - c_mar_row_net16_pp_9_r[3]
   + c_mar_row_net16_pp_9_3_case[0] + c_mar_row_net16_pp_9_3_case[1] >= 0
 mar_constraint_net16_pp_9_3_left_edge: - t_eol_c_r[0,3] - t_net16_c_r[0,3]
   + c_mar_row_net16_pp_9_3_case[0] <= 0
 mar_constraint_net16_pp_9_3_real_metal: - t_net16_c_r[1,3]
   + c_mar_row_net16_pp_9_3_case[0] <= 0
 mar_constraint_net16_pp_9_3_real_metal: - t_net16_c_r[2,3]
   + c_mar_row_net16_pp_9_3_case[0] <= 0
 mar_constraint_net16_pp_9_3_right_edge: - t_eol_c_r[3,3]
   - t_net16_c_r[3,3] + c_mar_row_net16_pp_9_3_case[0] <= 0
 mar_constraint_net16_pp_9_3_left_edge: - t_eol_c_r[1,3] - t_net16_c_r[1,3]
   + c_mar_row_net16_pp_9_3_case[1] <= 0
 mar_constraint_net16_pp_9_3_real_metal: - t_net16_c_r[2,3]
   + c_mar_row_net16_pp_9_3_case[1] <= 0
 mar_constraint_net16_pp_9_3_real_metal: - t_net16_c_r[3,3]
   + c_mar_row_net16_pp_9_3_case[1] <= 0
 mar_constraint_net16_pp_9_3_right_edge: - t_eol_c_r[4,3]
   - t_net16_c_r[4,3] + c_mar_row_net16_pp_9_3_case[1] <= 0
 case_selection_on_off_rule1_net16_pp_9_2: - c_mar_row_net16_pp_9_r[2]
   + c_mar_row_net16_pp_9_2_case[0] + c_mar_row_net16_pp_9_2_case[1] <= 0
 case_selection_on_off_rule2_net16_pp_9_2: - c_mar_row_net16_pp_9_r[2]
   + c_mar_row_net16_pp_9_2_case[0] + c_mar_row_net16_pp_9_2_case[1] >= 0
 mar_constraint_net16_pp_9_2_left_edge: - t_eol_c_r[0,2] - t_net16_c_r[0,2]
   + c_mar_row_net16_pp_9_2_case[0] <= 0
 mar_constraint_net16_pp_9_2_real_metal: - t_net16_c_r[1,2]
   + c_mar_row_net16_pp_9_2_case[0] <= 0
 mar_constraint_net16_pp_9_2_real_metal: - t_net16_c_r[2,2]
   + c_mar_row_net16_pp_9_2_case[0] <= 0
 mar_constraint_net16_pp_9_2_right_edge: - t_eol_c_r[3,2]
   - t_net16_c_r[3,2] + c_mar_row_net16_pp_9_2_case[0] <= 0
 mar_constraint_net16_pp_9_2_left_edge: - t_eol_c_r[1,2] - t_net16_c_r[1,2]
   + c_mar_row_net16_pp_9_2_case[1] <= 0
 mar_constraint_net16_pp_9_2_real_metal: - t_net16_c_r[2,2]
   + c_mar_row_net16_pp_9_2_case[1] <= 0
 mar_constraint_net16_pp_9_2_real_metal: - t_net16_c_r[3,2]
   + c_mar_row_net16_pp_9_2_case[1] <= 0
 mar_constraint_net16_pp_9_2_right_edge: - t_eol_c_r[4,2]
   - t_net16_c_r[4,2] + c_mar_row_net16_pp_9_2_case[1] <= 0
 row_selection_on_off_rule1_net16_nn_9: - 2 indicator_net16_nn_9
   + c_mar_row_net16_nn_9_r[1] + c_mar_row_net16_nn_9_r[0] <= 0
 row_selection_on_off_rule2_net16_nn_9: - 2 io_detector_net16
   + c_mar_row_net16_nn_9_r[1] + c_mar_row_net16_nn_9_r[0] <= 0
 row_selection_on_off_rule3_net16_nn_9: - indicator_net16_nn_9
   - io_detector_net16 + c_mar_row_net16_nn_9_r[1]
   + c_mar_row_net16_nn_9_r[0] >= -1
 case_selection_on_off_rule1_net16_nn_9_1: - c_mar_row_net16_nn_9_r[1]
   + c_mar_row_net16_nn_9_1_case[0] + c_mar_row_net16_nn_9_1_case[1] <= 0
 case_selection_on_off_rule2_net16_nn_9_1: - c_mar_row_net16_nn_9_r[1]
   + c_mar_row_net16_nn_9_1_case[0] + c_mar_row_net16_nn_9_1_case[1] >= 0
 mar_constraint_net16_nn_9_1_left_edge: - t_eol_c_r[0,1] - t_net16_c_r[0,1]
   + c_mar_row_net16_nn_9_1_case[0] <= 0
 mar_constraint_net16_nn_9_1_real_metal: - t_net16_c_r[1,1]
   + c_mar_row_net16_nn_9_1_case[0] <= 0
 mar_constraint_net16_nn_9_1_real_metal: - t_net16_c_r[2,1]
   + c_mar_row_net16_nn_9_1_case[0] <= 0
 mar_constraint_net16_nn_9_1_right_edge: - t_eol_c_r[3,1]
   - t_net16_c_r[3,1] + c_mar_row_net16_nn_9_1_case[0] <= 0
 mar_constraint_net16_nn_9_1_left_edge: - t_eol_c_r[1,1] - t_net16_c_r[1,1]
   + c_mar_row_net16_nn_9_1_case[1] <= 0
 mar_constraint_net16_nn_9_1_real_metal: - t_net16_c_r[2,1]
   + c_mar_row_net16_nn_9_1_case[1] <= 0
 mar_constraint_net16_nn_9_1_real_metal: - t_net16_c_r[3,1]
   + c_mar_row_net16_nn_9_1_case[1] <= 0
 mar_constraint_net16_nn_9_1_right_edge: - t_eol_c_r[4,1]
   - t_net16_c_r[4,1] + c_mar_row_net16_nn_9_1_case[1] <= 0
 case_selection_on_off_rule1_net16_nn_9_0: - c_mar_row_net16_nn_9_r[0]
   + c_mar_row_net16_nn_9_0_case[0] + c_mar_row_net16_nn_9_0_case[1] <= 0
 case_selection_on_off_rule2_net16_nn_9_0: - c_mar_row_net16_nn_9_r[0]
   + c_mar_row_net16_nn_9_0_case[0] + c_mar_row_net16_nn_9_0_case[1] >= 0
 mar_constraint_net16_nn_9_0_left_edge: - t_eol_c_r[0,0] - t_net16_c_r[0,0]
   + c_mar_row_net16_nn_9_0_case[0] <= 0
 mar_constraint_net16_nn_9_0_real_metal: - t_net16_c_r[1,0]
   + c_mar_row_net16_nn_9_0_case[0] <= 0
 mar_constraint_net16_nn_9_0_real_metal: - t_net16_c_r[2,0]
   + c_mar_row_net16_nn_9_0_case[0] <= 0
 mar_constraint_net16_nn_9_0_right_edge: - t_eol_c_r[3,0]
   - t_net16_c_r[3,0] + c_mar_row_net16_nn_9_0_case[0] <= 0
 mar_constraint_net16_nn_9_0_left_edge: - t_eol_c_r[1,0] - t_net16_c_r[1,0]
   + c_mar_row_net16_nn_9_0_case[1] <= 0
 mar_constraint_net16_nn_9_0_real_metal: - t_net16_c_r[2,0]
   + c_mar_row_net16_nn_9_0_case[1] <= 0
 mar_constraint_net16_nn_9_0_real_metal: - t_net16_c_r[3,0]
   + c_mar_row_net16_nn_9_0_case[1] <= 0
 mar_constraint_net16_nn_9_0_right_edge: - t_eol_c_r[4,0]
   - t_net16_c_r[4,0] + c_mar_row_net16_nn_9_0_case[1] <= 0
 row_selection_on_off_rule1_net16_ac_9: - 4 indicator_net16_ac_9
   + c_mar_row_net16_ac_9_r[3] + c_mar_row_net16_ac_9_r[2]
   + c_mar_row_net16_ac_9_r[1] + c_mar_row_net16_ac_9_r[0] <= 0
 row_selection_on_off_rule2_net16_ac_9: - 4 io_detector_net16
   + c_mar_row_net16_ac_9_r[3] + c_mar_row_net16_ac_9_r[2]
   + c_mar_row_net16_ac_9_r[1] + c_mar_row_net16_ac_9_r[0] <= 0
 row_selection_on_off_rule3_net16_ac_9: - indicator_net16_ac_9
   - io_detector_net16 + c_mar_row_net16_ac_9_r[3]
   + c_mar_row_net16_ac_9_r[2] + c_mar_row_net16_ac_9_r[1]
   + c_mar_row_net16_ac_9_r[0] >= -1
 case_selection_on_off_rule1_net16_ac_9_3: - c_mar_row_net16_ac_9_r[3]
   + c_mar_row_net16_ac_9_3_case[0] + c_mar_row_net16_ac_9_3_case[1] <= 0
 case_selection_on_off_rule2_net16_ac_9_3: - c_mar_row_net16_ac_9_r[3]
   + c_mar_row_net16_ac_9_3_case[0] + c_mar_row_net16_ac_9_3_case[1] >= 0
 mar_constraint_net16_ac_9_3_left_edge: - t_eol_c_r[0,3] - t_net16_c_r[0,3]
   + c_mar_row_net16_ac_9_3_case[0] <= 0
 mar_constraint_net16_ac_9_3_real_metal: - t_net16_c_r[1,3]
   + c_mar_row_net16_ac_9_3_case[0] <= 0
 mar_constraint_net16_ac_9_3_real_metal: - t_net16_c_r[2,3]
   + c_mar_row_net16_ac_9_3_case[0] <= 0
 mar_constraint_net16_ac_9_3_right_edge: - t_eol_c_r[3,3]
   - t_net16_c_r[3,3] + c_mar_row_net16_ac_9_3_case[0] <= 0
 mar_constraint_net16_ac_9_3_left_edge: - t_eol_c_r[1,3] - t_net16_c_r[1,3]
   + c_mar_row_net16_ac_9_3_case[1] <= 0
 mar_constraint_net16_ac_9_3_real_metal: - t_net16_c_r[2,3]
   + c_mar_row_net16_ac_9_3_case[1] <= 0
 mar_constraint_net16_ac_9_3_real_metal: - t_net16_c_r[3,3]
   + c_mar_row_net16_ac_9_3_case[1] <= 0
 mar_constraint_net16_ac_9_3_right_edge: - t_eol_c_r[4,3]
   - t_net16_c_r[4,3] + c_mar_row_net16_ac_9_3_case[1] <= 0
 case_selection_on_off_rule1_net16_ac_9_2: - c_mar_row_net16_ac_9_r[2]
   + c_mar_row_net16_ac_9_2_case[0] + c_mar_row_net16_ac_9_2_case[1] <= 0
 case_selection_on_off_rule2_net16_ac_9_2: - c_mar_row_net16_ac_9_r[2]
   + c_mar_row_net16_ac_9_2_case[0] + c_mar_row_net16_ac_9_2_case[1] >= 0
 mar_constraint_net16_ac_9_2_left_edge: - t_eol_c_r[0,2] - t_net16_c_r[0,2]
   + c_mar_row_net16_ac_9_2_case[0] <= 0
 mar_constraint_net16_ac_9_2_real_metal: - t_net16_c_r[1,2]
   + c_mar_row_net16_ac_9_2_case[0] <= 0
 mar_constraint_net16_ac_9_2_real_metal: - t_net16_c_r[2,2]
   + c_mar_row_net16_ac_9_2_case[0] <= 0
 mar_constraint_net16_ac_9_2_right_edge: - t_eol_c_r[3,2]
   - t_net16_c_r[3,2] + c_mar_row_net16_ac_9_2_case[0] <= 0
 mar_constraint_net16_ac_9_2_left_edge: - t_eol_c_r[1,2] - t_net16_c_r[1,2]
   + c_mar_row_net16_ac_9_2_case[1] <= 0
 mar_constraint_net16_ac_9_2_real_metal: - t_net16_c_r[2,2]
   + c_mar_row_net16_ac_9_2_case[1] <= 0
 mar_constraint_net16_ac_9_2_real_metal: - t_net16_c_r[3,2]
   + c_mar_row_net16_ac_9_2_case[1] <= 0
 mar_constraint_net16_ac_9_2_right_edge: - t_eol_c_r[4,2]
   - t_net16_c_r[4,2] + c_mar_row_net16_ac_9_2_case[1] <= 0
 case_selection_on_off_rule1_net16_ac_9_1: - c_mar_row_net16_ac_9_r[1]
   + c_mar_row_net16_ac_9_1_case[0] + c_mar_row_net16_ac_9_1_case[1] <= 0
 case_selection_on_off_rule2_net16_ac_9_1: - c_mar_row_net16_ac_9_r[1]
   + c_mar_row_net16_ac_9_1_case[0] + c_mar_row_net16_ac_9_1_case[1] >= 0
 mar_constraint_net16_ac_9_1_left_edge: - t_eol_c_r[0,1] - t_net16_c_r[0,1]
   + c_mar_row_net16_ac_9_1_case[0] <= 0
 mar_constraint_net16_ac_9_1_real_metal: - t_net16_c_r[1,1]
   + c_mar_row_net16_ac_9_1_case[0] <= 0
 mar_constraint_net16_ac_9_1_real_metal: - t_net16_c_r[2,1]
   + c_mar_row_net16_ac_9_1_case[0] <= 0
 mar_constraint_net16_ac_9_1_right_edge: - t_eol_c_r[3,1]
   - t_net16_c_r[3,1] + c_mar_row_net16_ac_9_1_case[0] <= 0
 mar_constraint_net16_ac_9_1_left_edge: - t_eol_c_r[1,1] - t_net16_c_r[1,1]
   + c_mar_row_net16_ac_9_1_case[1] <= 0
 mar_constraint_net16_ac_9_1_real_metal: - t_net16_c_r[2,1]
   + c_mar_row_net16_ac_9_1_case[1] <= 0
 mar_constraint_net16_ac_9_1_real_metal: - t_net16_c_r[3,1]
   + c_mar_row_net16_ac_9_1_case[1] <= 0
 mar_constraint_net16_ac_9_1_right_edge: - t_eol_c_r[4,1]
   - t_net16_c_r[4,1] + c_mar_row_net16_ac_9_1_case[1] <= 0
 case_selection_on_off_rule1_net16_ac_9_0: - c_mar_row_net16_ac_9_r[0]
   + c_mar_row_net16_ac_9_0_case[0] + c_mar_row_net16_ac_9_0_case[1] <= 0
 case_selection_on_off_rule2_net16_ac_9_0: - c_mar_row_net16_ac_9_r[0]
   + c_mar_row_net16_ac_9_0_case[0] + c_mar_row_net16_ac_9_0_case[1] >= 0
 mar_constraint_net16_ac_9_0_left_edge: - t_eol_c_r[0,0] - t_net16_c_r[0,0]
   + c_mar_row_net16_ac_9_0_case[0] <= 0
 mar_constraint_net16_ac_9_0_real_metal: - t_net16_c_r[1,0]
   + c_mar_row_net16_ac_9_0_case[0] <= 0
 mar_constraint_net16_ac_9_0_real_metal: - t_net16_c_r[2,0]
   + c_mar_row_net16_ac_9_0_case[0] <= 0
 mar_constraint_net16_ac_9_0_right_edge: - t_eol_c_r[3,0]
   - t_net16_c_r[3,0] + c_mar_row_net16_ac_9_0_case[0] <= 0
 mar_constraint_net16_ac_9_0_left_edge: - t_eol_c_r[1,0] - t_net16_c_r[1,0]
   + c_mar_row_net16_ac_9_0_case[1] <= 0
 mar_constraint_net16_ac_9_0_real_metal: - t_net16_c_r[2,0]
   + c_mar_row_net16_ac_9_0_case[1] <= 0
 mar_constraint_net16_ac_9_0_real_metal: - t_net16_c_r[3,0]
   + c_mar_row_net16_ac_9_0_case[1] <= 0
 mar_constraint_net16_ac_9_0_right_edge: - t_eol_c_r[4,0]
   - t_net16_c_r[4,0] + c_mar_row_net16_ac_9_0_case[1] <= 0
 row_selection_on_off_rule1_net16_pp_12: - 2 indicator_net16_pp_12
   + c_mar_row_net16_pp_12_r[3] + c_mar_row_net16_pp_12_r[2] <= 0
 row_selection_on_off_rule2_net16_pp_12: - 2 io_detector_net16
   + c_mar_row_net16_pp_12_r[3] + c_mar_row_net16_pp_12_r[2] <= 0
 row_selection_on_off_rule3_net16_pp_12: - indicator_net16_pp_12
   - io_detector_net16 + c_mar_row_net16_pp_12_r[3]
   + c_mar_row_net16_pp_12_r[2] >= -1
 case_selection_on_off_rule1_net16_pp_12_3: - c_mar_row_net16_pp_12_r[3]
   + c_mar_row_net16_pp_12_3_case[0] + c_mar_row_net16_pp_12_3_case[1]
   <= 0
 case_selection_on_off_rule2_net16_pp_12_3: - c_mar_row_net16_pp_12_r[3]
   + c_mar_row_net16_pp_12_3_case[0] + c_mar_row_net16_pp_12_3_case[1]
   >= 0
 mar_constraint_net16_pp_12_3_left_edge: - t_eol_c_r[1,3]
   - t_net16_c_r[1,3] + c_mar_row_net16_pp_12_3_case[0] <= 0
 mar_constraint_net16_pp_12_3_real_metal: - t_net16_c_r[2,3]
   + c_mar_row_net16_pp_12_3_case[0] <= 0
 mar_constraint_net16_pp_12_3_real_metal: - t_net16_c_r[3,3]
   + c_mar_row_net16_pp_12_3_case[0] <= 0
 mar_constraint_net16_pp_12_3_right_edge: - t_eol_c_r[4,3]
   - t_net16_c_r[4,3] + c_mar_row_net16_pp_12_3_case[0] <= 0
 mar_constraint_net16_pp_12_3_left_edge: - t_eol_c_r[2,3]
   - t_net16_c_r[2,3] + c_mar_row_net16_pp_12_3_case[1] <= 0
 mar_constraint_net16_pp_12_3_real_metal: - t_net16_c_r[3,3]
   + c_mar_row_net16_pp_12_3_case[1] <= 0
 mar_constraint_net16_pp_12_3_right_edge: - t_net16_c_r[4,3]
   + c_mar_row_net16_pp_12_3_case[1] <= 0
 case_selection_on_off_rule1_net16_pp_12_2: - c_mar_row_net16_pp_12_r[2]
   + c_mar_row_net16_pp_12_2_case[0] + c_mar_row_net16_pp_12_2_case[1]
   <= 0
 case_selection_on_off_rule2_net16_pp_12_2: - c_mar_row_net16_pp_12_r[2]
   + c_mar_row_net16_pp_12_2_case[0] + c_mar_row_net16_pp_12_2_case[1]
   >= 0
 mar_constraint_net16_pp_12_2_left_edge: - t_eol_c_r[1,2]
   - t_net16_c_r[1,2] + c_mar_row_net16_pp_12_2_case[0] <= 0
 mar_constraint_net16_pp_12_2_real_metal: - t_net16_c_r[2,2]
   + c_mar_row_net16_pp_12_2_case[0] <= 0
 mar_constraint_net16_pp_12_2_real_metal: - t_net16_c_r[3,2]
   + c_mar_row_net16_pp_12_2_case[0] <= 0
 mar_constraint_net16_pp_12_2_right_edge: - t_eol_c_r[4,2]
   - t_net16_c_r[4,2] + c_mar_row_net16_pp_12_2_case[0] <= 0
 mar_constraint_net16_pp_12_2_left_edge: - t_eol_c_r[2,2]
   - t_net16_c_r[2,2] + c_mar_row_net16_pp_12_2_case[1] <= 0
 mar_constraint_net16_pp_12_2_real_metal: - t_net16_c_r[3,2]
   + c_mar_row_net16_pp_12_2_case[1] <= 0
 mar_constraint_net16_pp_12_2_right_edge: - t_net16_c_r[4,2]
   + c_mar_row_net16_pp_12_2_case[1] <= 0
 row_selection_on_off_rule1_net16_nn_12: - 2 indicator_net16_nn_12
   + c_mar_row_net16_nn_12_r[1] + c_mar_row_net16_nn_12_r[0] <= 0
 row_selection_on_off_rule2_net16_nn_12: - 2 io_detector_net16
   + c_mar_row_net16_nn_12_r[1] + c_mar_row_net16_nn_12_r[0] <= 0
 row_selection_on_off_rule3_net16_nn_12: - indicator_net16_nn_12
   - io_detector_net16 + c_mar_row_net16_nn_12_r[1]
   + c_mar_row_net16_nn_12_r[0] >= -1
 case_selection_on_off_rule1_net16_nn_12_1: - c_mar_row_net16_nn_12_r[1]
   + c_mar_row_net16_nn_12_1_case[0] + c_mar_row_net16_nn_12_1_case[1]
   <= 0
 case_selection_on_off_rule2_net16_nn_12_1: - c_mar_row_net16_nn_12_r[1]
   + c_mar_row_net16_nn_12_1_case[0] + c_mar_row_net16_nn_12_1_case[1]
   >= 0
 mar_constraint_net16_nn_12_1_left_edge: - t_eol_c_r[1,1]
   - t_net16_c_r[1,1] + c_mar_row_net16_nn_12_1_case[0] <= 0
 mar_constraint_net16_nn_12_1_real_metal: - t_net16_c_r[2,1]
   + c_mar_row_net16_nn_12_1_case[0] <= 0
 mar_constraint_net16_nn_12_1_real_metal: - t_net16_c_r[3,1]
   + c_mar_row_net16_nn_12_1_case[0] <= 0
 mar_constraint_net16_nn_12_1_right_edge: - t_eol_c_r[4,1]
   - t_net16_c_r[4,1] + c_mar_row_net16_nn_12_1_case[0] <= 0
 mar_constraint_net16_nn_12_1_left_edge: - t_eol_c_r[2,1]
   - t_net16_c_r[2,1] + c_mar_row_net16_nn_12_1_case[1] <= 0
 mar_constraint_net16_nn_12_1_real_metal: - t_net16_c_r[3,1]
   + c_mar_row_net16_nn_12_1_case[1] <= 0
 mar_constraint_net16_nn_12_1_right_edge: - t_net16_c_r[4,1]
   + c_mar_row_net16_nn_12_1_case[1] <= 0
 case_selection_on_off_rule1_net16_nn_12_0: - c_mar_row_net16_nn_12_r[0]
   + c_mar_row_net16_nn_12_0_case[0] + c_mar_row_net16_nn_12_0_case[1]
   <= 0
 case_selection_on_off_rule2_net16_nn_12_0: - c_mar_row_net16_nn_12_r[0]
   + c_mar_row_net16_nn_12_0_case[0] + c_mar_row_net16_nn_12_0_case[1]
   >= 0
 mar_constraint_net16_nn_12_0_left_edge: - t_eol_c_r[1,0]
   - t_net16_c_r[1,0] + c_mar_row_net16_nn_12_0_case[0] <= 0
 mar_constraint_net16_nn_12_0_real_metal: - t_net16_c_r[2,0]
   + c_mar_row_net16_nn_12_0_case[0] <= 0
 mar_constraint_net16_nn_12_0_real_metal: - t_net16_c_r[3,0]
   + c_mar_row_net16_nn_12_0_case[0] <= 0
 mar_constraint_net16_nn_12_0_right_edge: - t_eol_c_r[4,0]
   - t_net16_c_r[4,0] + c_mar_row_net16_nn_12_0_case[0] <= 0
 mar_constraint_net16_nn_12_0_left_edge: - t_eol_c_r[2,0]
   - t_net16_c_r[2,0] + c_mar_row_net16_nn_12_0_case[1] <= 0
 mar_constraint_net16_nn_12_0_real_metal: - t_net16_c_r[3,0]
   + c_mar_row_net16_nn_12_0_case[1] <= 0
 mar_constraint_net16_nn_12_0_right_edge: - t_net16_c_r[4,0]
   + c_mar_row_net16_nn_12_0_case[1] <= 0
 row_selection_on_off_rule1_net16_ac_12: - 4 indicator_net16_ac_12
   + c_mar_row_net16_ac_12_r[3] + c_mar_row_net16_ac_12_r[2]
   + c_mar_row_net16_ac_12_r[1] + c_mar_row_net16_ac_12_r[0] <= 0
 row_selection_on_off_rule2_net16_ac_12: - 4 io_detector_net16
   + c_mar_row_net16_ac_12_r[3] + c_mar_row_net16_ac_12_r[2]
   + c_mar_row_net16_ac_12_r[1] + c_mar_row_net16_ac_12_r[0] <= 0
 row_selection_on_off_rule3_net16_ac_12: - indicator_net16_ac_12
   - io_detector_net16 + c_mar_row_net16_ac_12_r[3]
   + c_mar_row_net16_ac_12_r[2] + c_mar_row_net16_ac_12_r[1]
   + c_mar_row_net16_ac_12_r[0] >= -1
 case_selection_on_off_rule1_net16_ac_12_3: - c_mar_row_net16_ac_12_r[3]
   + c_mar_row_net16_ac_12_3_case[0] + c_mar_row_net16_ac_12_3_case[1]
   <= 0
 case_selection_on_off_rule2_net16_ac_12_3: - c_mar_row_net16_ac_12_r[3]
   + c_mar_row_net16_ac_12_3_case[0] + c_mar_row_net16_ac_12_3_case[1]
   >= 0
 mar_constraint_net16_ac_12_3_left_edge: - t_eol_c_r[1,3]
   - t_net16_c_r[1,3] + c_mar_row_net16_ac_12_3_case[0] <= 0
 mar_constraint_net16_ac_12_3_real_metal: - t_net16_c_r[2,3]
   + c_mar_row_net16_ac_12_3_case[0] <= 0
 mar_constraint_net16_ac_12_3_real_metal: - t_net16_c_r[3,3]
   + c_mar_row_net16_ac_12_3_case[0] <= 0
 mar_constraint_net16_ac_12_3_right_edge: - t_eol_c_r[4,3]
   - t_net16_c_r[4,3] + c_mar_row_net16_ac_12_3_case[0] <= 0
 mar_constraint_net16_ac_12_3_left_edge: - t_eol_c_r[2,3]
   - t_net16_c_r[2,3] + c_mar_row_net16_ac_12_3_case[1] <= 0
 mar_constraint_net16_ac_12_3_real_metal: - t_net16_c_r[3,3]
   + c_mar_row_net16_ac_12_3_case[1] <= 0
 mar_constraint_net16_ac_12_3_right_edge: - t_net16_c_r[4,3]
   + c_mar_row_net16_ac_12_3_case[1] <= 0
 case_selection_on_off_rule1_net16_ac_12_2: - c_mar_row_net16_ac_12_r[2]
   + c_mar_row_net16_ac_12_2_case[0] + c_mar_row_net16_ac_12_2_case[1]
   <= 0
 case_selection_on_off_rule2_net16_ac_12_2: - c_mar_row_net16_ac_12_r[2]
   + c_mar_row_net16_ac_12_2_case[0] + c_mar_row_net16_ac_12_2_case[1]
   >= 0
 mar_constraint_net16_ac_12_2_left_edge: - t_eol_c_r[1,2]
   - t_net16_c_r[1,2] + c_mar_row_net16_ac_12_2_case[0] <= 0
 mar_constraint_net16_ac_12_2_real_metal: - t_net16_c_r[2,2]
   + c_mar_row_net16_ac_12_2_case[0] <= 0
 mar_constraint_net16_ac_12_2_real_metal: - t_net16_c_r[3,2]
   + c_mar_row_net16_ac_12_2_case[0] <= 0
 mar_constraint_net16_ac_12_2_right_edge: - t_eol_c_r[4,2]
   - t_net16_c_r[4,2] + c_mar_row_net16_ac_12_2_case[0] <= 0
 mar_constraint_net16_ac_12_2_left_edge: - t_eol_c_r[2,2]
   - t_net16_c_r[2,2] + c_mar_row_net16_ac_12_2_case[1] <= 0
 mar_constraint_net16_ac_12_2_real_metal: - t_net16_c_r[3,2]
   + c_mar_row_net16_ac_12_2_case[1] <= 0
 mar_constraint_net16_ac_12_2_right_edge: - t_net16_c_r[4,2]
   + c_mar_row_net16_ac_12_2_case[1] <= 0
 case_selection_on_off_rule1_net16_ac_12_1: - c_mar_row_net16_ac_12_r[1]
   + c_mar_row_net16_ac_12_1_case[0] + c_mar_row_net16_ac_12_1_case[1]
   <= 0
 case_selection_on_off_rule2_net16_ac_12_1: - c_mar_row_net16_ac_12_r[1]
   + c_mar_row_net16_ac_12_1_case[0] + c_mar_row_net16_ac_12_1_case[1]
   >= 0
 mar_constraint_net16_ac_12_1_left_edge: - t_eol_c_r[1,1]
   - t_net16_c_r[1,1] + c_mar_row_net16_ac_12_1_case[0] <= 0
 mar_constraint_net16_ac_12_1_real_metal: - t_net16_c_r[2,1]
   + c_mar_row_net16_ac_12_1_case[0] <= 0
 mar_constraint_net16_ac_12_1_real_metal: - t_net16_c_r[3,1]
   + c_mar_row_net16_ac_12_1_case[0] <= 0
 mar_constraint_net16_ac_12_1_right_edge: - t_eol_c_r[4,1]
   - t_net16_c_r[4,1] + c_mar_row_net16_ac_12_1_case[0] <= 0
 mar_constraint_net16_ac_12_1_left_edge: - t_eol_c_r[2,1]
   - t_net16_c_r[2,1] + c_mar_row_net16_ac_12_1_case[1] <= 0
 mar_constraint_net16_ac_12_1_real_metal: - t_net16_c_r[3,1]
   + c_mar_row_net16_ac_12_1_case[1] <= 0
 mar_constraint_net16_ac_12_1_right_edge: - t_net16_c_r[4,1]
   + c_mar_row_net16_ac_12_1_case[1] <= 0
 case_selection_on_off_rule1_net16_ac_12_0: - c_mar_row_net16_ac_12_r[0]
   + c_mar_row_net16_ac_12_0_case[0] + c_mar_row_net16_ac_12_0_case[1]
   <= 0
 case_selection_on_off_rule2_net16_ac_12_0: - c_mar_row_net16_ac_12_r[0]
   + c_mar_row_net16_ac_12_0_case[0] + c_mar_row_net16_ac_12_0_case[1]
   >= 0
 mar_constraint_net16_ac_12_0_left_edge: - t_eol_c_r[1,0]
   - t_net16_c_r[1,0] + c_mar_row_net16_ac_12_0_case[0] <= 0
 mar_constraint_net16_ac_12_0_real_metal: - t_net16_c_r[2,0]
   + c_mar_row_net16_ac_12_0_case[0] <= 0
 mar_constraint_net16_ac_12_0_real_metal: - t_net16_c_r[3,0]
   + c_mar_row_net16_ac_12_0_case[0] <= 0
 mar_constraint_net16_ac_12_0_right_edge: - t_eol_c_r[4,0]
   - t_net16_c_r[4,0] + c_mar_row_net16_ac_12_0_case[0] <= 0
 mar_constraint_net16_ac_12_0_left_edge: - t_eol_c_r[2,0]
   - t_net16_c_r[2,0] + c_mar_row_net16_ac_12_0_case[1] <= 0
 mar_constraint_net16_ac_12_0_real_metal: - t_net16_c_r[3,0]
   + c_mar_row_net16_ac_12_0_case[1] <= 0
 mar_constraint_net16_ac_12_0_right_edge: - t_net16_c_r[4,0]
   + c_mar_row_net16_ac_12_0_case[1] <= 0
 row_selection_on_off_rule1_net16_pp_15: - 2 indicator_net16_pp_15
   + c_mar_row_net16_pp_15_r[3] + c_mar_row_net16_pp_15_r[2] <= 0
 row_selection_on_off_rule2_net16_pp_15: - 2 io_detector_net16
   + c_mar_row_net16_pp_15_r[3] + c_mar_row_net16_pp_15_r[2] <= 0
 row_selection_on_off_rule3_net16_pp_15: - indicator_net16_pp_15
   - io_detector_net16 + c_mar_row_net16_pp_15_r[3]
   + c_mar_row_net16_pp_15_r[2] >= -1
 case_selection_on_off_rule1_net16_pp_15_3: - c_mar_row_net16_pp_15_r[3]
   + c_mar_row_net16_pp_15_3_case[0] <= 0
 case_selection_on_off_rule2_net16_pp_15_3: - c_mar_row_net16_pp_15_r[3]
   + c_mar_row_net16_pp_15_3_case[0] >= 0
 mar_constraint_net16_pp_15_3_left_edge: - t_eol_c_r[2,3]
   - t_net16_c_r[2,3] + c_mar_row_net16_pp_15_3_case[0] <= 0
 mar_constraint_net16_pp_15_3_real_metal: - t_net16_c_r[3,3]
   + c_mar_row_net16_pp_15_3_case[0] <= 0
 mar_constraint_net16_pp_15_3_right_edge: - t_net16_c_r[4,3]
   + c_mar_row_net16_pp_15_3_case[0] <= 0
 case_selection_on_off_rule1_net16_pp_15_2: - c_mar_row_net16_pp_15_r[2]
   + c_mar_row_net16_pp_15_2_case[0] <= 0
 case_selection_on_off_rule2_net16_pp_15_2: - c_mar_row_net16_pp_15_r[2]
   + c_mar_row_net16_pp_15_2_case[0] >= 0
 mar_constraint_net16_pp_15_2_left_edge: - t_eol_c_r[2,2]
   - t_net16_c_r[2,2] + c_mar_row_net16_pp_15_2_case[0] <= 0
 mar_constraint_net16_pp_15_2_real_metal: - t_net16_c_r[3,2]
   + c_mar_row_net16_pp_15_2_case[0] <= 0
 mar_constraint_net16_pp_15_2_right_edge: - t_net16_c_r[4,2]
   + c_mar_row_net16_pp_15_2_case[0] <= 0
 row_selection_on_off_rule1_net16_nn_15: - 2 indicator_net16_nn_15
   + c_mar_row_net16_nn_15_r[1] + c_mar_row_net16_nn_15_r[0] <= 0
 row_selection_on_off_rule2_net16_nn_15: - 2 io_detector_net16
   + c_mar_row_net16_nn_15_r[1] + c_mar_row_net16_nn_15_r[0] <= 0
 row_selection_on_off_rule3_net16_nn_15: - indicator_net16_nn_15
   - io_detector_net16 + c_mar_row_net16_nn_15_r[1]
   + c_mar_row_net16_nn_15_r[0] >= -1
 case_selection_on_off_rule1_net16_nn_15_1: - c_mar_row_net16_nn_15_r[1]
   + c_mar_row_net16_nn_15_1_case[0] <= 0
 case_selection_on_off_rule2_net16_nn_15_1: - c_mar_row_net16_nn_15_r[1]
   + c_mar_row_net16_nn_15_1_case[0] >= 0
 mar_constraint_net16_nn_15_1_left_edge: - t_eol_c_r[2,1]
   - t_net16_c_r[2,1] + c_mar_row_net16_nn_15_1_case[0] <= 0
 mar_constraint_net16_nn_15_1_real_metal: - t_net16_c_r[3,1]
   + c_mar_row_net16_nn_15_1_case[0] <= 0
 mar_constraint_net16_nn_15_1_right_edge: - t_net16_c_r[4,1]
   + c_mar_row_net16_nn_15_1_case[0] <= 0
 case_selection_on_off_rule1_net16_nn_15_0: - c_mar_row_net16_nn_15_r[0]
   + c_mar_row_net16_nn_15_0_case[0] <= 0
 case_selection_on_off_rule2_net16_nn_15_0: - c_mar_row_net16_nn_15_r[0]
   + c_mar_row_net16_nn_15_0_case[0] >= 0
 mar_constraint_net16_nn_15_0_left_edge: - t_eol_c_r[2,0]
   - t_net16_c_r[2,0] + c_mar_row_net16_nn_15_0_case[0] <= 0
 mar_constraint_net16_nn_15_0_real_metal: - t_net16_c_r[3,0]
   + c_mar_row_net16_nn_15_0_case[0] <= 0
 mar_constraint_net16_nn_15_0_right_edge: - t_net16_c_r[4,0]
   + c_mar_row_net16_nn_15_0_case[0] <= 0
 row_selection_on_off_rule1_net16_ac_15: - 4 indicator_net16_ac_15
   + c_mar_row_net16_ac_15_r[3] + c_mar_row_net16_ac_15_r[2]
   + c_mar_row_net16_ac_15_r[1] + c_mar_row_net16_ac_15_r[0] <= 0
 row_selection_on_off_rule2_net16_ac_15: - 4 io_detector_net16
   + c_mar_row_net16_ac_15_r[3] + c_mar_row_net16_ac_15_r[2]
   + c_mar_row_net16_ac_15_r[1] + c_mar_row_net16_ac_15_r[0] <= 0
 row_selection_on_off_rule3_net16_ac_15: - indicator_net16_ac_15
   - io_detector_net16 + c_mar_row_net16_ac_15_r[3]
   + c_mar_row_net16_ac_15_r[2] + c_mar_row_net16_ac_15_r[1]
   + c_mar_row_net16_ac_15_r[0] >= -1
 case_selection_on_off_rule1_net16_ac_15_3: - c_mar_row_net16_ac_15_r[3]
   + c_mar_row_net16_ac_15_3_case[0] <= 0
 case_selection_on_off_rule2_net16_ac_15_3: - c_mar_row_net16_ac_15_r[3]
   + c_mar_row_net16_ac_15_3_case[0] >= 0
 mar_constraint_net16_ac_15_3_left_edge: - t_eol_c_r[2,3]
   - t_net16_c_r[2,3] + c_mar_row_net16_ac_15_3_case[0] <= 0
 mar_constraint_net16_ac_15_3_real_metal: - t_net16_c_r[3,3]
   + c_mar_row_net16_ac_15_3_case[0] <= 0
 mar_constraint_net16_ac_15_3_right_edge: - t_net16_c_r[4,3]
   + c_mar_row_net16_ac_15_3_case[0] <= 0
 case_selection_on_off_rule1_net16_ac_15_2: - c_mar_row_net16_ac_15_r[2]
   + c_mar_row_net16_ac_15_2_case[0] <= 0
 case_selection_on_off_rule2_net16_ac_15_2: - c_mar_row_net16_ac_15_r[2]
   + c_mar_row_net16_ac_15_2_case[0] >= 0
 mar_constraint_net16_ac_15_2_left_edge: - t_eol_c_r[2,2]
   - t_net16_c_r[2,2] + c_mar_row_net16_ac_15_2_case[0] <= 0
 mar_constraint_net16_ac_15_2_real_metal: - t_net16_c_r[3,2]
   + c_mar_row_net16_ac_15_2_case[0] <= 0
 mar_constraint_net16_ac_15_2_right_edge: - t_net16_c_r[4,2]
   + c_mar_row_net16_ac_15_2_case[0] <= 0
 case_selection_on_off_rule1_net16_ac_15_1: - c_mar_row_net16_ac_15_r[1]
   + c_mar_row_net16_ac_15_1_case[0] <= 0
 case_selection_on_off_rule2_net16_ac_15_1: - c_mar_row_net16_ac_15_r[1]
   + c_mar_row_net16_ac_15_1_case[0] >= 0
 mar_constraint_net16_ac_15_1_left_edge: - t_eol_c_r[2,1]
   - t_net16_c_r[2,1] + c_mar_row_net16_ac_15_1_case[0] <= 0
 mar_constraint_net16_ac_15_1_real_metal: - t_net16_c_r[3,1]
   + c_mar_row_net16_ac_15_1_case[0] <= 0
 mar_constraint_net16_ac_15_1_right_edge: - t_net16_c_r[4,1]
   + c_mar_row_net16_ac_15_1_case[0] <= 0
 case_selection_on_off_rule1_net16_ac_15_0: - c_mar_row_net16_ac_15_r[0]
   + c_mar_row_net16_ac_15_0_case[0] <= 0
 case_selection_on_off_rule2_net16_ac_15_0: - c_mar_row_net16_ac_15_r[0]
   + c_mar_row_net16_ac_15_0_case[0] >= 0
 mar_constraint_net16_ac_15_0_left_edge: - t_eol_c_r[2,0]
   - t_net16_c_r[2,0] + c_mar_row_net16_ac_15_0_case[0] <= 0
 mar_constraint_net16_ac_15_0_real_metal: - t_net16_c_r[3,0]
   + c_mar_row_net16_ac_15_0_case[0] <= 0
 mar_constraint_net16_ac_15_0_right_edge: - t_net16_c_r[4,0]
   + c_mar_row_net16_ac_15_0_case[0] <= 0
 global_zero_constraint_net16_pv_3_pv_4_3: - indicator_net16_pp_3
   - indicator_net16_nn_3 - indicator_net16_ac_3 - indicator_net16_pp_6
   - indicator_net16_nn_6 - indicator_net16_ac_6 - indicator_net16_pp_9
   - indicator_net16_nn_9 - indicator_net16_ac_9 - indicator_net16_pp_12
   - indicator_net16_nn_12 - indicator_net16_ac_12 - indicator_net16_pp_15
   - indicator_net16_nn_15 - indicator_net16_ac_15
   + y_net16_edge_pv_3_pv_4_3 <= -1
 active_c_ge_min_indicator_min_bbox_net16_pv_3_pv_4_3: min_indicator_net16
   + 5 y_net16_edge_pv_3_pv_4_3 <= 6
 active_c_ge_max_bbox_min_bbox_net16_pv_3_pv_4_3: - max_bbox_net16
   + 5 y_net16_edge_pv_3_pv_4_3 <= 4
 edge_flow_ub_net16_pv_3_pv_4_3: - y_net16_edge_pv_3_pv_4_3
   + f_net16_edge_pv_3_pv_4_3 <= 0
 edge_flow_lb_net16_pv_3_pv_4_3: y_net16_edge_pv_3_pv_4_3
   + f_net16_edge_pv_3_pv_4_3 >= 0
 global_zero_constraint_net16_pv_3_pv_4_2: - indicator_net16_pp_3
   - indicator_net16_nn_3 - indicator_net16_ac_3 - indicator_net16_pp_6
   - indicator_net16_nn_6 - indicator_net16_ac_6 - indicator_net16_pp_9
   - indicator_net16_nn_9 - indicator_net16_ac_9 - indicator_net16_pp_12
   - indicator_net16_nn_12 - indicator_net16_ac_12 - indicator_net16_pp_15
   - indicator_net16_nn_15 - indicator_net16_ac_15
   + y_net16_edge_pv_3_pv_4_2 <= -1
 active_c_ge_min_indicator_min_bbox_net16_pv_3_pv_4_2: min_indicator_net16
   + 5 y_net16_edge_pv_3_pv_4_2 <= 6
 active_c_ge_max_bbox_min_bbox_net16_pv_3_pv_4_2: - max_bbox_net16
   + 5 y_net16_edge_pv_3_pv_4_2 <= 4
 edge_flow_ub_net16_pv_3_pv_4_2: - y_net16_edge_pv_3_pv_4_2
   + f_net16_edge_pv_3_pv_4_2 <= 0
 edge_flow_lb_net16_pv_3_pv_4_2: y_net16_edge_pv_3_pv_4_2
   + f_net16_edge_pv_3_pv_4_2 >= 0
 global_zero_constraint_net16_nv_3_nv_4_1: - indicator_net16_pp_3
   - indicator_net16_nn_3 - indicator_net16_ac_3 - indicator_net16_pp_6
   - indicator_net16_nn_6 - indicator_net16_ac_6 - indicator_net16_pp_9
   - indicator_net16_nn_9 - indicator_net16_ac_9 - indicator_net16_pp_12
   - indicator_net16_nn_12 - indicator_net16_ac_12 - indicator_net16_pp_15
   - indicator_net16_nn_15 - indicator_net16_ac_15
   + y_net16_edge_nv_3_nv_4_1 <= -1
 active_c_ge_min_indicator_min_bbox_net16_nv_3_nv_4_1: min_indicator_net16
   + 5 y_net16_edge_nv_3_nv_4_1 <= 6
 active_c_ge_max_bbox_min_bbox_net16_nv_3_nv_4_1: - max_bbox_net16
   + 5 y_net16_edge_nv_3_nv_4_1 <= 4
 edge_flow_ub_net16_nv_3_nv_4_1: - y_net16_edge_nv_3_nv_4_1
   + f_net16_edge_nv_3_nv_4_1 <= 0
 edge_flow_lb_net16_nv_3_nv_4_1: y_net16_edge_nv_3_nv_4_1
   + f_net16_edge_nv_3_nv_4_1 >= 0
 global_zero_constraint_net16_nv_3_nv_4_0: - indicator_net16_pp_3
   - indicator_net16_nn_3 - indicator_net16_ac_3 - indicator_net16_pp_6
   - indicator_net16_nn_6 - indicator_net16_ac_6 - indicator_net16_pp_9
   - indicator_net16_nn_9 - indicator_net16_ac_9 - indicator_net16_pp_12
   - indicator_net16_nn_12 - indicator_net16_ac_12 - indicator_net16_pp_15
   - indicator_net16_nn_15 - indicator_net16_ac_15
   + y_net16_edge_nv_3_nv_4_0 <= -1
 active_c_ge_min_indicator_min_bbox_net16_nv_3_nv_4_0: min_indicator_net16
   + 5 y_net16_edge_nv_3_nv_4_0 <= 6
 active_c_ge_max_bbox_min_bbox_net16_nv_3_nv_4_0: - max_bbox_net16
   + 5 y_net16_edge_nv_3_nv_4_0 <= 4
 edge_flow_ub_net16_nv_3_nv_4_0: - y_net16_edge_nv_3_nv_4_0
   + f_net16_edge_nv_3_nv_4_0 <= 0
 edge_flow_lb_net16_nv_3_nv_4_0: y_net16_edge_nv_3_nv_4_0
   + f_net16_edge_nv_3_nv_4_0 >= 0
 global_zero_constraint_net16_pv_4_pv_6_3: - indicator_net16_pp_3
   - indicator_net16_nn_3 - indicator_net16_ac_3 - indicator_net16_pp_6
   - indicator_net16_nn_6 - indicator_net16_ac_6 - indicator_net16_pp_9
   - indicator_net16_nn_9 - indicator_net16_ac_9 - indicator_net16_pp_12
   - indicator_net16_nn_12 - indicator_net16_ac_12 - indicator_net16_pp_15
   - indicator_net16_nn_15 - indicator_net16_ac_15
   + y_net16_edge_pv_4_pv_6_3 <= -1
 active_c_ge_min_indicator_min_bbox_net16_pv_4_pv_6_3: min_indicator_net16
   + 5 y_net16_edge_pv_4_pv_6_3 <= 6
 active_c_ge_max_bbox_min_bbox_net16_pv_4_pv_6_3: - max_bbox_net16
   + 5 y_net16_edge_pv_4_pv_6_3 <= 4
 edge_flow_ub_net16_pv_4_pv_6_3: - y_net16_edge_pv_4_pv_6_3
   + f_net16_edge_pv_4_pv_6_3 <= 0
 edge_flow_lb_net16_pv_4_pv_6_3: y_net16_edge_pv_4_pv_6_3
   + f_net16_edge_pv_4_pv_6_3 >= 0
 global_zero_constraint_net16_pv_4_pv_6_2: - indicator_net16_pp_3
   - indicator_net16_nn_3 - indicator_net16_ac_3 - indicator_net16_pp_6
   - indicator_net16_nn_6 - indicator_net16_ac_6 - indicator_net16_pp_9
   - indicator_net16_nn_9 - indicator_net16_ac_9 - indicator_net16_pp_12
   - indicator_net16_nn_12 - indicator_net16_ac_12 - indicator_net16_pp_15
   - indicator_net16_nn_15 - indicator_net16_ac_15
   + y_net16_edge_pv_4_pv_6_2 <= -1
 active_c_ge_min_indicator_min_bbox_net16_pv_4_pv_6_2: min_indicator_net16
   + 5 y_net16_edge_pv_4_pv_6_2 <= 6
 active_c_ge_max_bbox_min_bbox_net16_pv_4_pv_6_2: - max_bbox_net16
   + 5 y_net16_edge_pv_4_pv_6_2 <= 4
 edge_flow_ub_net16_pv_4_pv_6_2: - y_net16_edge_pv_4_pv_6_2
   + f_net16_edge_pv_4_pv_6_2 <= 0
 edge_flow_lb_net16_pv_4_pv_6_2: y_net16_edge_pv_4_pv_6_2
   + f_net16_edge_pv_4_pv_6_2 >= 0
 global_zero_constraint_net16_nv_4_nv_6_1: - indicator_net16_pp_3
   - indicator_net16_nn_3 - indicator_net16_ac_3 - indicator_net16_pp_6
   - indicator_net16_nn_6 - indicator_net16_ac_6 - indicator_net16_pp_9
   - indicator_net16_nn_9 - indicator_net16_ac_9 - indicator_net16_pp_12
   - indicator_net16_nn_12 - indicator_net16_ac_12 - indicator_net16_pp_15
   - indicator_net16_nn_15 - indicator_net16_ac_15
   + y_net16_edge_nv_4_nv_6_1 <= -1
 active_c_ge_min_indicator_min_bbox_net16_nv_4_nv_6_1: min_indicator_net16
   + 5 y_net16_edge_nv_4_nv_6_1 <= 6
 active_c_ge_max_bbox_min_bbox_net16_nv_4_nv_6_1: - max_bbox_net16
   + 5 y_net16_edge_nv_4_nv_6_1 <= 4
 edge_flow_ub_net16_nv_4_nv_6_1: - y_net16_edge_nv_4_nv_6_1
   + f_net16_edge_nv_4_nv_6_1 <= 0
 edge_flow_lb_net16_nv_4_nv_6_1: y_net16_edge_nv_4_nv_6_1
   + f_net16_edge_nv_4_nv_6_1 >= 0
 global_zero_constraint_net16_nv_4_nv_6_0: - indicator_net16_pp_3
   - indicator_net16_nn_3 - indicator_net16_ac_3 - indicator_net16_pp_6
   - indicator_net16_nn_6 - indicator_net16_ac_6 - indicator_net16_pp_9
   - indicator_net16_nn_9 - indicator_net16_ac_9 - indicator_net16_pp_12
   - indicator_net16_nn_12 - indicator_net16_ac_12 - indicator_net16_pp_15
   - indicator_net16_nn_15 - indicator_net16_ac_15
   + y_net16_edge_nv_4_nv_6_0 <= -1
 active_c_ge_min_indicator_min_bbox_net16_nv_4_nv_6_0: min_indicator_net16
   + 5 y_net16_edge_nv_4_nv_6_0 <= 6
 active_c_ge_max_bbox_min_bbox_net16_nv_4_nv_6_0: - max_bbox_net16
   + 5 y_net16_edge_nv_4_nv_6_0 <= 4
 edge_flow_ub_net16_nv_4_nv_6_0: - y_net16_edge_nv_4_nv_6_0
   + f_net16_edge_nv_4_nv_6_0 <= 0
 edge_flow_lb_net16_nv_4_nv_6_0: y_net16_edge_nv_4_nv_6_0
   + f_net16_edge_nv_4_nv_6_0 >= 0
 global_zero_constraint_net16_pv_6_pv_8_3: - indicator_net16_pp_3
   - indicator_net16_nn_3 - indicator_net16_ac_3 - indicator_net16_pp_6
   - indicator_net16_nn_6 - indicator_net16_ac_6 - indicator_net16_pp_9
   - indicator_net16_nn_9 - indicator_net16_ac_9 - indicator_net16_pp_12
   - indicator_net16_nn_12 - indicator_net16_ac_12 - indicator_net16_pp_15
   - indicator_net16_nn_15 - indicator_net16_ac_15
   + y_net16_edge_pv_6_pv_8_3 <= -1
 active_c_ge_min_indicator_min_bbox_net16_pv_6_pv_8_3: min_indicator_net16
   + 5 y_net16_edge_pv_6_pv_8_3 <= 7
 active_c_ge_max_bbox_min_bbox_net16_pv_6_pv_8_3: - max_bbox_net16
   + 5 y_net16_edge_pv_6_pv_8_3 <= 3
 edge_flow_ub_net16_pv_6_pv_8_3: - y_net16_edge_pv_6_pv_8_3
   + f_net16_edge_pv_6_pv_8_3 <= 0
 edge_flow_lb_net16_pv_6_pv_8_3: y_net16_edge_pv_6_pv_8_3
   + f_net16_edge_pv_6_pv_8_3 >= 0
 global_zero_constraint_net16_pv_6_pv_8_2: - indicator_net16_pp_3
   - indicator_net16_nn_3 - indicator_net16_ac_3 - indicator_net16_pp_6
   - indicator_net16_nn_6 - indicator_net16_ac_6 - indicator_net16_pp_9
   - indicator_net16_nn_9 - indicator_net16_ac_9 - indicator_net16_pp_12
   - indicator_net16_nn_12 - indicator_net16_ac_12 - indicator_net16_pp_15
   - indicator_net16_nn_15 - indicator_net16_ac_15
   + y_net16_edge_pv_6_pv_8_2 <= -1
 active_c_ge_min_indicator_min_bbox_net16_pv_6_pv_8_2: min_indicator_net16
   + 5 y_net16_edge_pv_6_pv_8_2 <= 7
 active_c_ge_max_bbox_min_bbox_net16_pv_6_pv_8_2: - max_bbox_net16
   + 5 y_net16_edge_pv_6_pv_8_2 <= 3
 edge_flow_ub_net16_pv_6_pv_8_2: - y_net16_edge_pv_6_pv_8_2
   + f_net16_edge_pv_6_pv_8_2 <= 0
 edge_flow_lb_net16_pv_6_pv_8_2: y_net16_edge_pv_6_pv_8_2
   + f_net16_edge_pv_6_pv_8_2 >= 0
 global_zero_constraint_net16_nv_6_nv_8_1: - indicator_net16_pp_3
   - indicator_net16_nn_3 - indicator_net16_ac_3 - indicator_net16_pp_6
   - indicator_net16_nn_6 - indicator_net16_ac_6 - indicator_net16_pp_9
   - indicator_net16_nn_9 - indicator_net16_ac_9 - indicator_net16_pp_12
   - indicator_net16_nn_12 - indicator_net16_ac_12 - indicator_net16_pp_15
   - indicator_net16_nn_15 - indicator_net16_ac_15
   + y_net16_edge_nv_6_nv_8_1 <= -1
 active_c_ge_min_indicator_min_bbox_net16_nv_6_nv_8_1: min_indicator_net16
   + 5 y_net16_edge_nv_6_nv_8_1 <= 7
 active_c_ge_max_bbox_min_bbox_net16_nv_6_nv_8_1: - max_bbox_net16
   + 5 y_net16_edge_nv_6_nv_8_1 <= 3
 edge_flow_ub_net16_nv_6_nv_8_1: - y_net16_edge_nv_6_nv_8_1
   + f_net16_edge_nv_6_nv_8_1 <= 0
 edge_flow_lb_net16_nv_6_nv_8_1: y_net16_edge_nv_6_nv_8_1
   + f_net16_edge_nv_6_nv_8_1 >= 0
 global_zero_constraint_net16_nv_6_nv_8_0: - indicator_net16_pp_3
   - indicator_net16_nn_3 - indicator_net16_ac_3 - indicator_net16_pp_6
   - indicator_net16_nn_6 - indicator_net16_ac_6 - indicator_net16_pp_9
   - indicator_net16_nn_9 - indicator_net16_ac_9 - indicator_net16_pp_12
   - indicator_net16_nn_12 - indicator_net16_ac_12 - indicator_net16_pp_15
   - indicator_net16_nn_15 - indicator_net16_ac_15
   + y_net16_edge_nv_6_nv_8_0 <= -1
 active_c_ge_min_indicator_min_bbox_net16_nv_6_nv_8_0: min_indicator_net16
   + 5 y_net16_edge_nv_6_nv_8_0 <= 7
 active_c_ge_max_bbox_min_bbox_net16_nv_6_nv_8_0: - max_bbox_net16
   + 5 y_net16_edge_nv_6_nv_8_0 <= 3
 edge_flow_ub_net16_nv_6_nv_8_0: - y_net16_edge_nv_6_nv_8_0
   + f_net16_edge_nv_6_nv_8_0 <= 0
 edge_flow_lb_net16_nv_6_nv_8_0: y_net16_edge_nv_6_nv_8_0
   + f_net16_edge_nv_6_nv_8_0 >= 0
 global_zero_constraint_net16_pv_8_pv_9_3: - indicator_net16_pp_3
   - indicator_net16_nn_3 - indicator_net16_ac_3 - indicator_net16_pp_6
   - indicator_net16_nn_6 - indicator_net16_ac_6 - indicator_net16_pp_9
   - indicator_net16_nn_9 - indicator_net16_ac_9 - indicator_net16_pp_12
   - indicator_net16_nn_12 - indicator_net16_ac_12 - indicator_net16_pp_15
   - indicator_net16_nn_15 - indicator_net16_ac_15
   + y_net16_edge_pv_8_pv_9_3 <= -1
 active_c_ge_min_indicator_min_bbox_net16_pv_8_pv_9_3: min_indicator_net16
   + 5 y_net16_edge_pv_8_pv_9_3 <= 7
 active_c_ge_max_bbox_min_bbox_net16_pv_8_pv_9_3: - max_bbox_net16
   + 5 y_net16_edge_pv_8_pv_9_3 <= 3
 edge_flow_ub_net16_pv_8_pv_9_3: - y_net16_edge_pv_8_pv_9_3
   + f_net16_edge_pv_8_pv_9_3 <= 0
 edge_flow_lb_net16_pv_8_pv_9_3: y_net16_edge_pv_8_pv_9_3
   + f_net16_edge_pv_8_pv_9_3 >= 0
 global_zero_constraint_net16_pv_8_pv_9_2: - indicator_net16_pp_3
   - indicator_net16_nn_3 - indicator_net16_ac_3 - indicator_net16_pp_6
   - indicator_net16_nn_6 - indicator_net16_ac_6 - indicator_net16_pp_9
   - indicator_net16_nn_9 - indicator_net16_ac_9 - indicator_net16_pp_12
   - indicator_net16_nn_12 - indicator_net16_ac_12 - indicator_net16_pp_15
   - indicator_net16_nn_15 - indicator_net16_ac_15
   + y_net16_edge_pv_8_pv_9_2 <= -1
 active_c_ge_min_indicator_min_bbox_net16_pv_8_pv_9_2: min_indicator_net16
   + 5 y_net16_edge_pv_8_pv_9_2 <= 7
 active_c_ge_max_bbox_min_bbox_net16_pv_8_pv_9_2: - max_bbox_net16
   + 5 y_net16_edge_pv_8_pv_9_2 <= 3
 edge_flow_ub_net16_pv_8_pv_9_2: - y_net16_edge_pv_8_pv_9_2
   + f_net16_edge_pv_8_pv_9_2 <= 0
 edge_flow_lb_net16_pv_8_pv_9_2: y_net16_edge_pv_8_pv_9_2
   + f_net16_edge_pv_8_pv_9_2 >= 0
 global_zero_constraint_net16_nv_8_nv_9_1: - indicator_net16_pp_3
   - indicator_net16_nn_3 - indicator_net16_ac_3 - indicator_net16_pp_6
   - indicator_net16_nn_6 - indicator_net16_ac_6 - indicator_net16_pp_9
   - indicator_net16_nn_9 - indicator_net16_ac_9 - indicator_net16_pp_12
   - indicator_net16_nn_12 - indicator_net16_ac_12 - indicator_net16_pp_15
   - indicator_net16_nn_15 - indicator_net16_ac_15
   + y_net16_edge_nv_8_nv_9_1 <= -1
 active_c_ge_min_indicator_min_bbox_net16_nv_8_nv_9_1: min_indicator_net16
   + 5 y_net16_edge_nv_8_nv_9_1 <= 7
 active_c_ge_max_bbox_min_bbox_net16_nv_8_nv_9_1: - max_bbox_net16
   + 5 y_net16_edge_nv_8_nv_9_1 <= 3
 edge_flow_ub_net16_nv_8_nv_9_1: - y_net16_edge_nv_8_nv_9_1
   + f_net16_edge_nv_8_nv_9_1 <= 0
 edge_flow_lb_net16_nv_8_nv_9_1: y_net16_edge_nv_8_nv_9_1
   + f_net16_edge_nv_8_nv_9_1 >= 0
 global_zero_constraint_net16_nv_8_nv_9_0: - indicator_net16_pp_3
   - indicator_net16_nn_3 - indicator_net16_ac_3 - indicator_net16_pp_6
   - indicator_net16_nn_6 - indicator_net16_ac_6 - indicator_net16_pp_9
   - indicator_net16_nn_9 - indicator_net16_ac_9 - indicator_net16_pp_12
   - indicator_net16_nn_12 - indicator_net16_ac_12 - indicator_net16_pp_15
   - indicator_net16_nn_15 - indicator_net16_ac_15
   + y_net16_edge_nv_8_nv_9_0 <= -1
 active_c_ge_min_indicator_min_bbox_net16_nv_8_nv_9_0: min_indicator_net16
   + 5 y_net16_edge_nv_8_nv_9_0 <= 7
 active_c_ge_max_bbox_min_bbox_net16_nv_8_nv_9_0: - max_bbox_net16
   + 5 y_net16_edge_nv_8_nv_9_0 <= 3
 edge_flow_ub_net16_nv_8_nv_9_0: - y_net16_edge_nv_8_nv_9_0
   + f_net16_edge_nv_8_nv_9_0 <= 0
 edge_flow_lb_net16_nv_8_nv_9_0: y_net16_edge_nv_8_nv_9_0
   + f_net16_edge_nv_8_nv_9_0 >= 0
 global_zero_constraint_net16_pv_9_pv_12_3: - indicator_net16_pp_3
   - indicator_net16_nn_3 - indicator_net16_ac_3 - indicator_net16_pp_6
   - indicator_net16_nn_6 - indicator_net16_ac_6 - indicator_net16_pp_9
   - indicator_net16_nn_9 - indicator_net16_ac_9 - indicator_net16_pp_12
   - indicator_net16_nn_12 - indicator_net16_ac_12 - indicator_net16_pp_15
   - indicator_net16_nn_15 - indicator_net16_ac_15
   + y_net16_edge_pv_9_pv_12_3 <= -1
 active_c_ge_min_indicator_min_bbox_net16_pv_9_pv_12_3: min_indicator_net16
   + 5 y_net16_edge_pv_9_pv_12_3 <= 8
 active_c_ge_max_bbox_min_bbox_net16_pv_9_pv_12_3: - max_bbox_net16
   + 5 y_net16_edge_pv_9_pv_12_3 <= 2
 edge_flow_ub_net16_pv_9_pv_12_3: - y_net16_edge_pv_9_pv_12_3
   + f_net16_edge_pv_9_pv_12_3 <= 0
 edge_flow_lb_net16_pv_9_pv_12_3: y_net16_edge_pv_9_pv_12_3
   + f_net16_edge_pv_9_pv_12_3 >= 0
 global_zero_constraint_net16_pv_9_pv_12_2: - indicator_net16_pp_3
   - indicator_net16_nn_3 - indicator_net16_ac_3 - indicator_net16_pp_6
   - indicator_net16_nn_6 - indicator_net16_ac_6 - indicator_net16_pp_9
   - indicator_net16_nn_9 - indicator_net16_ac_9 - indicator_net16_pp_12
   - indicator_net16_nn_12 - indicator_net16_ac_12 - indicator_net16_pp_15
   - indicator_net16_nn_15 - indicator_net16_ac_15
   + y_net16_edge_pv_9_pv_12_2 <= -1
 active_c_ge_min_indicator_min_bbox_net16_pv_9_pv_12_2: min_indicator_net16
   + 5 y_net16_edge_pv_9_pv_12_2 <= 8
 active_c_ge_max_bbox_min_bbox_net16_pv_9_pv_12_2: - max_bbox_net16
   + 5 y_net16_edge_pv_9_pv_12_2 <= 2
 edge_flow_ub_net16_pv_9_pv_12_2: - y_net16_edge_pv_9_pv_12_2
   + f_net16_edge_pv_9_pv_12_2 <= 0
 edge_flow_lb_net16_pv_9_pv_12_2: y_net16_edge_pv_9_pv_12_2
   + f_net16_edge_pv_9_pv_12_2 >= 0
 global_zero_constraint_net16_nv_9_nv_12_1: - indicator_net16_pp_3
   - indicator_net16_nn_3 - indicator_net16_ac_3 - indicator_net16_pp_6
   - indicator_net16_nn_6 - indicator_net16_ac_6 - indicator_net16_pp_9
   - indicator_net16_nn_9 - indicator_net16_ac_9 - indicator_net16_pp_12
   - indicator_net16_nn_12 - indicator_net16_ac_12 - indicator_net16_pp_15
   - indicator_net16_nn_15 - indicator_net16_ac_15
   + y_net16_edge_nv_9_nv_12_1 <= -1
 active_c_ge_min_indicator_min_bbox_net16_nv_9_nv_12_1: min_indicator_net16
   + 5 y_net16_edge_nv_9_nv_12_1 <= 8
 active_c_ge_max_bbox_min_bbox_net16_nv_9_nv_12_1: - max_bbox_net16
   + 5 y_net16_edge_nv_9_nv_12_1 <= 2
 edge_flow_ub_net16_nv_9_nv_12_1: - y_net16_edge_nv_9_nv_12_1
   + f_net16_edge_nv_9_nv_12_1 <= 0
 edge_flow_lb_net16_nv_9_nv_12_1: y_net16_edge_nv_9_nv_12_1
   + f_net16_edge_nv_9_nv_12_1 >= 0
 global_zero_constraint_net16_nv_9_nv_12_0: - indicator_net16_pp_3
   - indicator_net16_nn_3 - indicator_net16_ac_3 - indicator_net16_pp_6
   - indicator_net16_nn_6 - indicator_net16_ac_6 - indicator_net16_pp_9
   - indicator_net16_nn_9 - indicator_net16_ac_9 - indicator_net16_pp_12
   - indicator_net16_nn_12 - indicator_net16_ac_12 - indicator_net16_pp_15
   - indicator_net16_nn_15 - indicator_net16_ac_15
   + y_net16_edge_nv_9_nv_12_0 <= -1
 active_c_ge_min_indicator_min_bbox_net16_nv_9_nv_12_0: min_indicator_net16
   + 5 y_net16_edge_nv_9_nv_12_0 <= 8
 active_c_ge_max_bbox_min_bbox_net16_nv_9_nv_12_0: - max_bbox_net16
   + 5 y_net16_edge_nv_9_nv_12_0 <= 2
 edge_flow_ub_net16_nv_9_nv_12_0: - y_net16_edge_nv_9_nv_12_0
   + f_net16_edge_nv_9_nv_12_0 <= 0
 edge_flow_lb_net16_nv_9_nv_12_0: y_net16_edge_nv_9_nv_12_0
   + f_net16_edge_nv_9_nv_12_0 >= 0
 global_zero_constraint_net16_pv_12_pv_15_3: - indicator_net16_pp_3
   - indicator_net16_nn_3 - indicator_net16_ac_3 - indicator_net16_pp_6
   - indicator_net16_nn_6 - indicator_net16_ac_6 - indicator_net16_pp_9
   - indicator_net16_nn_9 - indicator_net16_ac_9 - indicator_net16_pp_12
   - indicator_net16_nn_12 - indicator_net16_ac_12 - indicator_net16_pp_15
   - indicator_net16_nn_15 - indicator_net16_ac_15
   + y_net16_edge_pv_12_pv_15_3 <= -1
 active_c_ge_min_indicator_min_bbox_net16_pv_12_pv_15_3:
   min_indicator_net16 + 5 y_net16_edge_pv_12_pv_15_3 <= 9
 active_c_ge_max_bbox_min_bbox_net16_pv_12_pv_15_3: - max_bbox_net16
   + 5 y_net16_edge_pv_12_pv_15_3 <= 1
 edge_flow_ub_net16_pv_12_pv_15_3: - y_net16_edge_pv_12_pv_15_3
   + f_net16_edge_pv_12_pv_15_3 <= 0
 edge_flow_lb_net16_pv_12_pv_15_3: y_net16_edge_pv_12_pv_15_3
   + f_net16_edge_pv_12_pv_15_3 >= 0
 global_zero_constraint_net16_pv_12_pv_15_2: - indicator_net16_pp_3
   - indicator_net16_nn_3 - indicator_net16_ac_3 - indicator_net16_pp_6
   - indicator_net16_nn_6 - indicator_net16_ac_6 - indicator_net16_pp_9
   - indicator_net16_nn_9 - indicator_net16_ac_9 - indicator_net16_pp_12
   - indicator_net16_nn_12 - indicator_net16_ac_12 - indicator_net16_pp_15
   - indicator_net16_nn_15 - indicator_net16_ac_15
   + y_net16_edge_pv_12_pv_15_2 <= -1
 active_c_ge_min_indicator_min_bbox_net16_pv_12_pv_15_2:
   min_indicator_net16 + 5 y_net16_edge_pv_12_pv_15_2 <= 9
 active_c_ge_max_bbox_min_bbox_net16_pv_12_pv_15_2: - max_bbox_net16
   + 5 y_net16_edge_pv_12_pv_15_2 <= 1
 edge_flow_ub_net16_pv_12_pv_15_2: - y_net16_edge_pv_12_pv_15_2
   + f_net16_edge_pv_12_pv_15_2 <= 0
 edge_flow_lb_net16_pv_12_pv_15_2: y_net16_edge_pv_12_pv_15_2
   + f_net16_edge_pv_12_pv_15_2 >= 0
 global_zero_constraint_net16_nv_12_nv_15_1: - indicator_net16_pp_3
   - indicator_net16_nn_3 - indicator_net16_ac_3 - indicator_net16_pp_6
   - indicator_net16_nn_6 - indicator_net16_ac_6 - indicator_net16_pp_9
   - indicator_net16_nn_9 - indicator_net16_ac_9 - indicator_net16_pp_12
   - indicator_net16_nn_12 - indicator_net16_ac_12 - indicator_net16_pp_15
   - indicator_net16_nn_15 - indicator_net16_ac_15
   + y_net16_edge_nv_12_nv_15_1 <= -1
 active_c_ge_min_indicator_min_bbox_net16_nv_12_nv_15_1:
   min_indicator_net16 + 5 y_net16_edge_nv_12_nv_15_1 <= 9
 active_c_ge_max_bbox_min_bbox_net16_nv_12_nv_15_1: - max_bbox_net16
   + 5 y_net16_edge_nv_12_nv_15_1 <= 1
 edge_flow_ub_net16_nv_12_nv_15_1: - y_net16_edge_nv_12_nv_15_1
   + f_net16_edge_nv_12_nv_15_1 <= 0
 edge_flow_lb_net16_nv_12_nv_15_1: y_net16_edge_nv_12_nv_15_1
   + f_net16_edge_nv_12_nv_15_1 >= 0
 global_zero_constraint_net16_nv_12_nv_15_0: - indicator_net16_pp_3
   - indicator_net16_nn_3 - indicator_net16_ac_3 - indicator_net16_pp_6
   - indicator_net16_nn_6 - indicator_net16_ac_6 - indicator_net16_pp_9
   - indicator_net16_nn_9 - indicator_net16_ac_9 - indicator_net16_pp_12
   - indicator_net16_nn_12 - indicator_net16_ac_12 - indicator_net16_pp_15
   - indicator_net16_nn_15 - indicator_net16_ac_15
   + y_net16_edge_nv_12_nv_15_0 <= -1
 active_c_ge_min_indicator_min_bbox_net16_nv_12_nv_15_0:
   min_indicator_net16 + 5 y_net16_edge_nv_12_nv_15_0 <= 9
 active_c_ge_max_bbox_min_bbox_net16_nv_12_nv_15_0: - max_bbox_net16
   + 5 y_net16_edge_nv_12_nv_15_0 <= 1
 edge_flow_ub_net16_nv_12_nv_15_0: - y_net16_edge_nv_12_nv_15_0
   + f_net16_edge_nv_12_nv_15_0 <= 0
 edge_flow_lb_net16_nv_12_nv_15_0: y_net16_edge_nv_12_nv_15_0
   + f_net16_edge_nv_12_nv_15_0 >= 0
 global_zero_constraint_net16_m1_4_pv_4_ve: - indicator_net16_pp_3
   - indicator_net16_nn_3 - indicator_net16_ac_3 - indicator_net16_pp_6
   - indicator_net16_nn_6 - indicator_net16_ac_6 - indicator_net16_pp_9
   - indicator_net16_nn_9 - indicator_net16_ac_9 - indicator_net16_pp_12
   - indicator_net16_nn_12 - indicator_net16_ac_12 - indicator_net16_pp_15
   - indicator_net16_nn_15 - indicator_net16_ac_15
   + y_net16_edge_via_enable_m1_4_pv_4 <= -1
 active_c_ge_min_indicator_min_one_net16_m1_4_pv_4_ve: min_indicator_net16
   + 5 y_net16_edge_via_enable_m1_4_pv_4 <= 6
 active_c_ge_max_bbox_min_bbox_net16_m1_4_pv_4_ve: - max_bbox_net16
   + 5 y_net16_edge_via_enable_m1_4_pv_4 <= 4
 edge_flow_ub_net16_m1_4_pv_4_ve: - y_net16_edge_via_enable_m1_4_pv_4
   + f_net16_edge_via_enable_m1_4_pv_4 <= 0
 edge_flow_lb_net16_m1_4_pv_4_ve: y_net16_edge_via_enable_m1_4_pv_4
   + f_net16_edge_via_enable_m1_4_pv_4 >= 0
 global_zero_constraint_net16_m1_4_nv_4_ve: - indicator_net16_pp_3
   - indicator_net16_nn_3 - indicator_net16_ac_3 - indicator_net16_pp_6
   - indicator_net16_nn_6 - indicator_net16_ac_6 - indicator_net16_pp_9
   - indicator_net16_nn_9 - indicator_net16_ac_9 - indicator_net16_pp_12
   - indicator_net16_nn_12 - indicator_net16_ac_12 - indicator_net16_pp_15
   - indicator_net16_nn_15 - indicator_net16_ac_15
   + y_net16_edge_via_enable_m1_4_nv_4 <= -1
 active_c_ge_min_indicator_min_one_net16_m1_4_nv_4_ve: min_indicator_net16
   + 5 y_net16_edge_via_enable_m1_4_nv_4 <= 6
 active_c_ge_max_bbox_min_bbox_net16_m1_4_nv_4_ve: - max_bbox_net16
   + 5 y_net16_edge_via_enable_m1_4_nv_4 <= 4
 edge_flow_ub_net16_m1_4_nv_4_ve: - y_net16_edge_via_enable_m1_4_nv_4
   + f_net16_edge_via_enable_m1_4_nv_4 <= 0
 edge_flow_lb_net16_m1_4_nv_4_ve: y_net16_edge_via_enable_m1_4_nv_4
   + f_net16_edge_via_enable_m1_4_nv_4 >= 0
 global_zero_constraint_net16_m1_4_m1_8_7: - indicator_net16_pp_3
   - indicator_net16_nn_3 - indicator_net16_ac_3 - indicator_net16_pp_6
   - indicator_net16_nn_6 - indicator_net16_ac_6 - indicator_net16_pp_9
   - indicator_net16_nn_9 - indicator_net16_ac_9 - indicator_net16_pp_12
   - indicator_net16_nn_12 - indicator_net16_ac_12 - indicator_net16_pp_15
   - indicator_net16_nn_15 - indicator_net16_ac_15
   + y_net16_edge_m1_4_m1_8_r_7 <= -1
 active_c_ge_min_indicator_min_one_net16_m1_4_m1_8_7: min_indicator_net16
   + 5 y_net16_edge_m1_4_m1_8_r_7 <= 7
 active_c_ge_max_bbox_min_bbox_net16_m1_4_m1_8_7: - max_bbox_net16
   + 5 y_net16_edge_m1_4_m1_8_r_7 <= 3
 edge_flow_ub_net16_m1_4_m1_8_7: - y_net16_edge_m1_4_m1_8_r_7
   + f_net16_edge_m1_4_m1_8_r_7 <= 0
 edge_flow_lb_net16_m1_4_m1_8_7: y_net16_edge_m1_4_m1_8_r_7
   + f_net16_edge_m1_4_m1_8_r_7 >= 0
 global_zero_constraint_net16_m1_4_m1_8_6: - indicator_net16_pp_3
   - indicator_net16_nn_3 - indicator_net16_ac_3 - indicator_net16_pp_6
   - indicator_net16_nn_6 - indicator_net16_ac_6 - indicator_net16_pp_9
   - indicator_net16_nn_9 - indicator_net16_ac_9 - indicator_net16_pp_12
   - indicator_net16_nn_12 - indicator_net16_ac_12 - indicator_net16_pp_15
   - indicator_net16_nn_15 - indicator_net16_ac_15
   + y_net16_edge_m1_4_m1_8_r_6 <= -1
 active_c_ge_min_indicator_min_one_net16_m1_4_m1_8_6: min_indicator_net16
   + 5 y_net16_edge_m1_4_m1_8_r_6 <= 7
 active_c_ge_max_bbox_min_bbox_net16_m1_4_m1_8_6: - max_bbox_net16
   + 5 y_net16_edge_m1_4_m1_8_r_6 <= 3
 edge_flow_ub_net16_m1_4_m1_8_6: - y_net16_edge_m1_4_m1_8_r_6
   + f_net16_edge_m1_4_m1_8_r_6 <= 0
 edge_flow_lb_net16_m1_4_m1_8_6: y_net16_edge_m1_4_m1_8_r_6
   + f_net16_edge_m1_4_m1_8_r_6 >= 0
 global_zero_constraint_net16_m1_4_m1_8_5: - indicator_net16_pp_3
   - indicator_net16_nn_3 - indicator_net16_ac_3 - indicator_net16_pp_6
   - indicator_net16_nn_6 - indicator_net16_ac_6 - indicator_net16_pp_9
   - indicator_net16_nn_9 - indicator_net16_ac_9 - indicator_net16_pp_12
   - indicator_net16_nn_12 - indicator_net16_ac_12 - indicator_net16_pp_15
   - indicator_net16_nn_15 - indicator_net16_ac_15
   + y_net16_edge_m1_4_m1_8_r_5 <= -1
 active_c_ge_min_indicator_min_one_net16_m1_4_m1_8_5: min_indicator_net16
   + 5 y_net16_edge_m1_4_m1_8_r_5 <= 7
 active_c_ge_max_bbox_min_bbox_net16_m1_4_m1_8_5: - max_bbox_net16
   + 5 y_net16_edge_m1_4_m1_8_r_5 <= 3
 edge_flow_ub_net16_m1_4_m1_8_5: - y_net16_edge_m1_4_m1_8_r_5
   + f_net16_edge_m1_4_m1_8_r_5 <= 0
 edge_flow_lb_net16_m1_4_m1_8_5: y_net16_edge_m1_4_m1_8_r_5
   + f_net16_edge_m1_4_m1_8_r_5 >= 0
 global_zero_constraint_net16_m1_4_m1_8_4: - indicator_net16_pp_3
   - indicator_net16_nn_3 - indicator_net16_ac_3 - indicator_net16_pp_6
   - indicator_net16_nn_6 - indicator_net16_ac_6 - indicator_net16_pp_9
   - indicator_net16_nn_9 - indicator_net16_ac_9 - indicator_net16_pp_12
   - indicator_net16_nn_12 - indicator_net16_ac_12 - indicator_net16_pp_15
   - indicator_net16_nn_15 - indicator_net16_ac_15
   + y_net16_edge_m1_4_m1_8_r_4 <= -1
 active_c_ge_min_indicator_min_one_net16_m1_4_m1_8_4: min_indicator_net16
   + 5 y_net16_edge_m1_4_m1_8_r_4 <= 7
 active_c_ge_max_bbox_min_bbox_net16_m1_4_m1_8_4: - max_bbox_net16
   + 5 y_net16_edge_m1_4_m1_8_r_4 <= 3
 edge_flow_ub_net16_m1_4_m1_8_4: - y_net16_edge_m1_4_m1_8_r_4
   + f_net16_edge_m1_4_m1_8_r_4 <= 0
 edge_flow_lb_net16_m1_4_m1_8_4: y_net16_edge_m1_4_m1_8_r_4
   + f_net16_edge_m1_4_m1_8_r_4 >= 0
 global_zero_constraint_net16_m1_8_pv_8_ve: - indicator_net16_pp_3
   - indicator_net16_nn_3 - indicator_net16_ac_3 - indicator_net16_pp_6
   - indicator_net16_nn_6 - indicator_net16_ac_6 - indicator_net16_pp_9
   - indicator_net16_nn_9 - indicator_net16_ac_9 - indicator_net16_pp_12
   - indicator_net16_nn_12 - indicator_net16_ac_12 - indicator_net16_pp_15
   - indicator_net16_nn_15 - indicator_net16_ac_15
   + y_net16_edge_via_enable_m1_8_pv_8 <= -1
 active_c_ge_min_indicator_min_one_net16_m1_8_pv_8_ve: min_indicator_net16
   + 5 y_net16_edge_via_enable_m1_8_pv_8 <= 7
 active_c_ge_max_bbox_min_bbox_net16_m1_8_pv_8_ve: - max_bbox_net16
   + 5 y_net16_edge_via_enable_m1_8_pv_8 <= 3
 edge_flow_ub_net16_m1_8_pv_8_ve: - y_net16_edge_via_enable_m1_8_pv_8
   + f_net16_edge_via_enable_m1_8_pv_8 <= 0
 edge_flow_lb_net16_m1_8_pv_8_ve: y_net16_edge_via_enable_m1_8_pv_8
   + f_net16_edge_via_enable_m1_8_pv_8 >= 0
 global_zero_constraint_net16_m1_8_nv_8_ve: - indicator_net16_pp_3
   - indicator_net16_nn_3 - indicator_net16_ac_3 - indicator_net16_pp_6
   - indicator_net16_nn_6 - indicator_net16_ac_6 - indicator_net16_pp_9
   - indicator_net16_nn_9 - indicator_net16_ac_9 - indicator_net16_pp_12
   - indicator_net16_nn_12 - indicator_net16_ac_12 - indicator_net16_pp_15
   - indicator_net16_nn_15 - indicator_net16_ac_15
   + y_net16_edge_via_enable_m1_8_nv_8 <= -1
 active_c_ge_min_indicator_min_one_net16_m1_8_nv_8_ve: min_indicator_net16
   + 5 y_net16_edge_via_enable_m1_8_nv_8 <= 7
 active_c_ge_max_bbox_min_bbox_net16_m1_8_nv_8_ve: - max_bbox_net16
   + 5 y_net16_edge_via_enable_m1_8_nv_8 <= 3
 edge_flow_ub_net16_m1_8_nv_8_ve: - y_net16_edge_via_enable_m1_8_nv_8
   + f_net16_edge_via_enable_m1_8_nv_8 <= 0
 edge_flow_lb_net16_m1_8_nv_8_ve: y_net16_edge_via_enable_m1_8_nv_8
   + f_net16_edge_via_enable_m1_8_nv_8 >= 0
 global_zero_constraint_net16_m1_8_m1_12_7: - indicator_net16_pp_3
   - indicator_net16_nn_3 - indicator_net16_ac_3 - indicator_net16_pp_6
   - indicator_net16_nn_6 - indicator_net16_ac_6 - indicator_net16_pp_9
   - indicator_net16_nn_9 - indicator_net16_ac_9 - indicator_net16_pp_12
   - indicator_net16_nn_12 - indicator_net16_ac_12 - indicator_net16_pp_15
   - indicator_net16_nn_15 - indicator_net16_ac_15
   + y_net16_edge_m1_8_m1_12_r_7 <= -1
 active_c_ge_min_indicator_min_one_net16_m1_8_m1_12_7: min_indicator_net16
   + 5 y_net16_edge_m1_8_m1_12_r_7 <= 8
 active_c_ge_max_bbox_min_bbox_net16_m1_8_m1_12_7: - max_bbox_net16
   + 5 y_net16_edge_m1_8_m1_12_r_7 <= 2
 edge_flow_ub_net16_m1_8_m1_12_7: - y_net16_edge_m1_8_m1_12_r_7
   + f_net16_edge_m1_8_m1_12_r_7 <= 0
 edge_flow_lb_net16_m1_8_m1_12_7: y_net16_edge_m1_8_m1_12_r_7
   + f_net16_edge_m1_8_m1_12_r_7 >= 0
 global_zero_constraint_net16_m1_8_m1_12_6: - indicator_net16_pp_3
   - indicator_net16_nn_3 - indicator_net16_ac_3 - indicator_net16_pp_6
   - indicator_net16_nn_6 - indicator_net16_ac_6 - indicator_net16_pp_9
   - indicator_net16_nn_9 - indicator_net16_ac_9 - indicator_net16_pp_12
   - indicator_net16_nn_12 - indicator_net16_ac_12 - indicator_net16_pp_15
   - indicator_net16_nn_15 - indicator_net16_ac_15
   + y_net16_edge_m1_8_m1_12_r_6 <= -1
 active_c_ge_min_indicator_min_one_net16_m1_8_m1_12_6: min_indicator_net16
   + 5 y_net16_edge_m1_8_m1_12_r_6 <= 8
 active_c_ge_max_bbox_min_bbox_net16_m1_8_m1_12_6: - max_bbox_net16
   + 5 y_net16_edge_m1_8_m1_12_r_6 <= 2
 edge_flow_ub_net16_m1_8_m1_12_6: - y_net16_edge_m1_8_m1_12_r_6
   + f_net16_edge_m1_8_m1_12_r_6 <= 0
 edge_flow_lb_net16_m1_8_m1_12_6: y_net16_edge_m1_8_m1_12_r_6
   + f_net16_edge_m1_8_m1_12_r_6 >= 0
 global_zero_constraint_net16_m1_8_m1_12_5: - indicator_net16_pp_3
   - indicator_net16_nn_3 - indicator_net16_ac_3 - indicator_net16_pp_6
   - indicator_net16_nn_6 - indicator_net16_ac_6 - indicator_net16_pp_9
   - indicator_net16_nn_9 - indicator_net16_ac_9 - indicator_net16_pp_12
   - indicator_net16_nn_12 - indicator_net16_ac_12 - indicator_net16_pp_15
   - indicator_net16_nn_15 - indicator_net16_ac_15
   + y_net16_edge_m1_8_m1_12_r_5 <= -1
 active_c_ge_min_indicator_min_one_net16_m1_8_m1_12_5: min_indicator_net16
   + 5 y_net16_edge_m1_8_m1_12_r_5 <= 8
 active_c_ge_max_bbox_min_bbox_net16_m1_8_m1_12_5: - max_bbox_net16
   + 5 y_net16_edge_m1_8_m1_12_r_5 <= 2
 edge_flow_ub_net16_m1_8_m1_12_5: - y_net16_edge_m1_8_m1_12_r_5
   + f_net16_edge_m1_8_m1_12_r_5 <= 0
 edge_flow_lb_net16_m1_8_m1_12_5: y_net16_edge_m1_8_m1_12_r_5
   + f_net16_edge_m1_8_m1_12_r_5 >= 0
 global_zero_constraint_net16_m1_8_m1_12_4: - indicator_net16_pp_3
   - indicator_net16_nn_3 - indicator_net16_ac_3 - indicator_net16_pp_6
   - indicator_net16_nn_6 - indicator_net16_ac_6 - indicator_net16_pp_9
   - indicator_net16_nn_9 - indicator_net16_ac_9 - indicator_net16_pp_12
   - indicator_net16_nn_12 - indicator_net16_ac_12 - indicator_net16_pp_15
   - indicator_net16_nn_15 - indicator_net16_ac_15
   + y_net16_edge_m1_8_m1_12_r_4 <= -1
 active_c_ge_min_indicator_min_one_net16_m1_8_m1_12_4: min_indicator_net16
   + 5 y_net16_edge_m1_8_m1_12_r_4 <= 8
 active_c_ge_max_bbox_min_bbox_net16_m1_8_m1_12_4: - max_bbox_net16
   + 5 y_net16_edge_m1_8_m1_12_r_4 <= 2
 edge_flow_ub_net16_m1_8_m1_12_4: - y_net16_edge_m1_8_m1_12_r_4
   + f_net16_edge_m1_8_m1_12_r_4 <= 0
 edge_flow_lb_net16_m1_8_m1_12_4: y_net16_edge_m1_8_m1_12_r_4
   + f_net16_edge_m1_8_m1_12_r_4 >= 0
 global_zero_constraint_net16_m1_12_pv_12_ve: - indicator_net16_pp_3
   - indicator_net16_nn_3 - indicator_net16_ac_3 - indicator_net16_pp_6
   - indicator_net16_nn_6 - indicator_net16_ac_6 - indicator_net16_pp_9
   - indicator_net16_nn_9 - indicator_net16_ac_9 - indicator_net16_pp_12
   - indicator_net16_nn_12 - indicator_net16_ac_12 - indicator_net16_pp_15
   - indicator_net16_nn_15 - indicator_net16_ac_15
   + y_net16_edge_via_enable_m1_12_pv_12 <= -1
 active_c_ge_min_indicator_min_one_net16_m1_12_pv_12_ve:
   min_indicator_net16 + 5 y_net16_edge_via_enable_m1_12_pv_12 <= 8
 active_c_ge_max_bbox_min_bbox_net16_m1_12_pv_12_ve: - max_bbox_net16
   + 5 y_net16_edge_via_enable_m1_12_pv_12 <= 2
 edge_flow_ub_net16_m1_12_pv_12_ve: - y_net16_edge_via_enable_m1_12_pv_12
   + f_net16_edge_via_enable_m1_12_pv_12 <= 0
 edge_flow_lb_net16_m1_12_pv_12_ve: y_net16_edge_via_enable_m1_12_pv_12
   + f_net16_edge_via_enable_m1_12_pv_12 >= 0
 global_zero_constraint_net16_m1_12_nv_12_ve: - indicator_net16_pp_3
   - indicator_net16_nn_3 - indicator_net16_ac_3 - indicator_net16_pp_6
   - indicator_net16_nn_6 - indicator_net16_ac_6 - indicator_net16_pp_9
   - indicator_net16_nn_9 - indicator_net16_ac_9 - indicator_net16_pp_12
   - indicator_net16_nn_12 - indicator_net16_ac_12 - indicator_net16_pp_15
   - indicator_net16_nn_15 - indicator_net16_ac_15
   + y_net16_edge_via_enable_m1_12_nv_12 <= -1
 active_c_ge_min_indicator_min_one_net16_m1_12_nv_12_ve:
   min_indicator_net16 + 5 y_net16_edge_via_enable_m1_12_nv_12 <= 8
 active_c_ge_max_bbox_min_bbox_net16_m1_12_nv_12_ve: - max_bbox_net16
   + 5 y_net16_edge_via_enable_m1_12_nv_12 <= 2
 edge_flow_ub_net16_m1_12_nv_12_ve: - y_net16_edge_via_enable_m1_12_nv_12
   + f_net16_edge_via_enable_m1_12_nv_12 <= 0
 edge_flow_lb_net16_m1_12_nv_12_ve: y_net16_edge_via_enable_m1_12_nv_12
   + f_net16_edge_via_enable_m1_12_nv_12 >= 0
 via_enable_net16_pv_15_pv_4: - v_net16_v[0]
   + y_net16_edge_via_enable_m1_4_pv_4 <= 0
 via_enable_net16_pv_15_nv_4: - v_net16_v[0]
   + y_net16_edge_via_enable_m1_4_nv_4 <= 0
 via_enable_net16_pv_15_pv_8: - v_net16_v[1]
   + y_net16_edge_via_enable_m1_8_pv_8 <= 0
 via_enable_net16_pv_15_nv_8: - v_net16_v[1]
   + y_net16_edge_via_enable_m1_8_nv_8 <= 0
 via_enable_net16_pv_15_pv_12: - v_net16_v[2]
   + y_net16_edge_via_enable_m1_12_pv_12 <= 0
 via_enable_net16_pv_15_nv_12: - v_net16_v[2]
   + y_net16_edge_via_enable_m1_12_nv_12 <= 0
 t_activation_net16_pv_3_pv_4_0_3: t_net16_c_r[0,3]
   - y_net16_edge_pv_3_pv_4_3 >= 0
 t_activation_net16_pv_3_pv_4_1_3: t_net16_c_r[1,3]
   - y_net16_edge_pv_3_pv_4_3 >= 0
 logical_constraint_net16_pv_3_pv_4_j_index_3: - t_eol_c_r[2,3]
   - t_net16_c_r[2,3] + y_net16_edge_pv_3_pv_4_3 <= 0
 t_activation_net16_pv_3_pv_4_0_2: t_net16_c_r[0,2]
   - y_net16_edge_pv_3_pv_4_2 >= 0
 t_activation_net16_pv_3_pv_4_1_2: t_net16_c_r[1,2]
   - y_net16_edge_pv_3_pv_4_2 >= 0
 logical_constraint_net16_pv_3_pv_4_j_index_2: - t_eol_c_r[2,2]
   - t_net16_c_r[2,2] + y_net16_edge_pv_3_pv_4_2 <= 0
 t_activation_net16_nv_3_nv_4_0_1: t_net16_c_r[0,1]
   - y_net16_edge_nv_3_nv_4_1 >= 0
 t_activation_net16_nv_3_nv_4_1_1: t_net16_c_r[1,1]
   - y_net16_edge_nv_3_nv_4_1 >= 0
 logical_constraint_net16_nv_3_nv_4_j_index_1: - t_eol_c_r[2,1]
   - t_net16_c_r[2,1] + y_net16_edge_nv_3_nv_4_1 <= 0
 t_activation_net16_nv_3_nv_4_0_0: t_net16_c_r[0,0]
   - y_net16_edge_nv_3_nv_4_0 >= 0
 t_activation_net16_nv_3_nv_4_1_0: t_net16_c_r[1,0]
   - y_net16_edge_nv_3_nv_4_0 >= 0
 logical_constraint_net16_nv_3_nv_4_j_index_0: - t_eol_c_r[2,0]
   - t_net16_c_r[2,0] + y_net16_edge_nv_3_nv_4_0 <= 0
 t_activation_net16_pv_4_pv_6_0_3: t_net16_c_r[0,3]
   - y_net16_edge_pv_4_pv_6_3 >= 0
 t_activation_net16_pv_4_pv_6_1_3: t_net16_c_r[1,3]
   - y_net16_edge_pv_4_pv_6_3 >= 0
 logical_constraint_net16_pv_4_pv_6_j_index_3: - t_eol_c_r[2,3]
   - t_net16_c_r[2,3] + y_net16_edge_pv_4_pv_6_3 <= 0
 t_activation_net16_pv_4_pv_6_0_2: t_net16_c_r[0,2]
   - y_net16_edge_pv_4_pv_6_2 >= 0
 t_activation_net16_pv_4_pv_6_1_2: t_net16_c_r[1,2]
   - y_net16_edge_pv_4_pv_6_2 >= 0
 logical_constraint_net16_pv_4_pv_6_j_index_2: - t_eol_c_r[2,2]
   - t_net16_c_r[2,2] + y_net16_edge_pv_4_pv_6_2 <= 0
 t_activation_net16_nv_4_nv_6_0_1: t_net16_c_r[0,1]
   - y_net16_edge_nv_4_nv_6_1 >= 0
 t_activation_net16_nv_4_nv_6_1_1: t_net16_c_r[1,1]
   - y_net16_edge_nv_4_nv_6_1 >= 0
 logical_constraint_net16_nv_4_nv_6_j_index_1: - t_eol_c_r[2,1]
   - t_net16_c_r[2,1] + y_net16_edge_nv_4_nv_6_1 <= 0
 t_activation_net16_nv_4_nv_6_0_0: t_net16_c_r[0,0]
   - y_net16_edge_nv_4_nv_6_0 >= 0
 t_activation_net16_nv_4_nv_6_1_0: t_net16_c_r[1,0]
   - y_net16_edge_nv_4_nv_6_0 >= 0
 logical_constraint_net16_nv_4_nv_6_j_index_0: - t_eol_c_r[2,0]
   - t_net16_c_r[2,0] + y_net16_edge_nv_4_nv_6_0 <= 0
 t_activation_net16_pv_6_pv_8_1_3: t_net16_c_r[1,3]
   - y_net16_edge_pv_6_pv_8_3 >= 0
 t_activation_net16_pv_6_pv_8_2_3: t_net16_c_r[2,3]
   - y_net16_edge_pv_6_pv_8_3 >= 0
 logical_constraint_net16_pv_6_pv_8_i_index_minus_1_3: - t_eol_c_r[0,3]
   - t_net16_c_r[0,3] + y_net16_edge_pv_6_pv_8_3 <= 0
 logical_constraint_net16_pv_6_pv_8_j_index_3: - t_eol_c_r[3,3]
   - t_net16_c_r[3,3] + y_net16_edge_pv_6_pv_8_3 <= 0
 t_activation_net16_pv_6_pv_8_1_2: t_net16_c_r[1,2]
   - y_net16_edge_pv_6_pv_8_2 >= 0
 t_activation_net16_pv_6_pv_8_2_2: t_net16_c_r[2,2]
   - y_net16_edge_pv_6_pv_8_2 >= 0
 logical_constraint_net16_pv_6_pv_8_i_index_minus_1_2: - t_eol_c_r[0,2]
   - t_net16_c_r[0,2] + y_net16_edge_pv_6_pv_8_2 <= 0
 logical_constraint_net16_pv_6_pv_8_j_index_2: - t_eol_c_r[3,2]
   - t_net16_c_r[3,2] + y_net16_edge_pv_6_pv_8_2 <= 0
 t_activation_net16_nv_6_nv_8_1_1: t_net16_c_r[1,1]
   - y_net16_edge_nv_6_nv_8_1 >= 0
 t_activation_net16_nv_6_nv_8_2_1: t_net16_c_r[2,1]
   - y_net16_edge_nv_6_nv_8_1 >= 0
 logical_constraint_net16_nv_6_nv_8_i_index_minus_1_1: - t_eol_c_r[0,1]
   - t_net16_c_r[0,1] + y_net16_edge_nv_6_nv_8_1 <= 0
 logical_constraint_net16_nv_6_nv_8_j_index_1: - t_eol_c_r[3,1]
   - t_net16_c_r[3,1] + y_net16_edge_nv_6_nv_8_1 <= 0
 t_activation_net16_nv_6_nv_8_1_0: t_net16_c_r[1,0]
   - y_net16_edge_nv_6_nv_8_0 >= 0
 t_activation_net16_nv_6_nv_8_2_0: t_net16_c_r[2,0]
   - y_net16_edge_nv_6_nv_8_0 >= 0
 logical_constraint_net16_nv_6_nv_8_i_index_minus_1_0: - t_eol_c_r[0,0]
   - t_net16_c_r[0,0] + y_net16_edge_nv_6_nv_8_0 <= 0
 logical_constraint_net16_nv_6_nv_8_j_index_0: - t_eol_c_r[3,0]
   - t_net16_c_r[3,0] + y_net16_edge_nv_6_nv_8_0 <= 0
 t_activation_net16_pv_8_pv_9_1_3: t_net16_c_r[1,3]
   - y_net16_edge_pv_8_pv_9_3 >= 0
 t_activation_net16_pv_8_pv_9_2_3: t_net16_c_r[2,3]
   - y_net16_edge_pv_8_pv_9_3 >= 0
 logical_constraint_net16_pv_8_pv_9_i_index_minus_1_3: - t_eol_c_r[0,3]
   - t_net16_c_r[0,3] + y_net16_edge_pv_8_pv_9_3 <= 0
 logical_constraint_net16_pv_8_pv_9_j_index_3: - t_eol_c_r[3,3]
   - t_net16_c_r[3,3] + y_net16_edge_pv_8_pv_9_3 <= 0
 t_activation_net16_pv_8_pv_9_1_2: t_net16_c_r[1,2]
   - y_net16_edge_pv_8_pv_9_2 >= 0
 t_activation_net16_pv_8_pv_9_2_2: t_net16_c_r[2,2]
   - y_net16_edge_pv_8_pv_9_2 >= 0
 logical_constraint_net16_pv_8_pv_9_i_index_minus_1_2: - t_eol_c_r[0,2]
   - t_net16_c_r[0,2] + y_net16_edge_pv_8_pv_9_2 <= 0
 logical_constraint_net16_pv_8_pv_9_j_index_2: - t_eol_c_r[3,2]
   - t_net16_c_r[3,2] + y_net16_edge_pv_8_pv_9_2 <= 0
 t_activation_net16_nv_8_nv_9_1_1: t_net16_c_r[1,1]
   - y_net16_edge_nv_8_nv_9_1 >= 0
 t_activation_net16_nv_8_nv_9_2_1: t_net16_c_r[2,1]
   - y_net16_edge_nv_8_nv_9_1 >= 0
 logical_constraint_net16_nv_8_nv_9_i_index_minus_1_1: - t_eol_c_r[0,1]
   - t_net16_c_r[0,1] + y_net16_edge_nv_8_nv_9_1 <= 0
 logical_constraint_net16_nv_8_nv_9_j_index_1: - t_eol_c_r[3,1]
   - t_net16_c_r[3,1] + y_net16_edge_nv_8_nv_9_1 <= 0
 t_activation_net16_nv_8_nv_9_1_0: t_net16_c_r[1,0]
   - y_net16_edge_nv_8_nv_9_0 >= 0
 t_activation_net16_nv_8_nv_9_2_0: t_net16_c_r[2,0]
   - y_net16_edge_nv_8_nv_9_0 >= 0
 logical_constraint_net16_nv_8_nv_9_i_index_minus_1_0: - t_eol_c_r[0,0]
   - t_net16_c_r[0,0] + y_net16_edge_nv_8_nv_9_0 <= 0
 logical_constraint_net16_nv_8_nv_9_j_index_0: - t_eol_c_r[3,0]
   - t_net16_c_r[3,0] + y_net16_edge_nv_8_nv_9_0 <= 0
 t_activation_net16_pv_9_pv_12_2_3: t_net16_c_r[2,3]
   - y_net16_edge_pv_9_pv_12_3 >= 0
 t_activation_net16_pv_9_pv_12_3_3: t_net16_c_r[3,3]
   - y_net16_edge_pv_9_pv_12_3 >= 0
 logical_constraint_net16_pv_9_pv_12_i_index_minus_1_3: - t_eol_c_r[1,3]
   - t_net16_c_r[1,3] + y_net16_edge_pv_9_pv_12_3 <= 0
 logical_constraint_net16_pv_9_pv_12_j_index_3: - t_eol_c_r[4,3]
   - t_net16_c_r[4,3] + y_net16_edge_pv_9_pv_12_3 <= 0
 t_activation_net16_pv_9_pv_12_2_2: t_net16_c_r[2,2]
   - y_net16_edge_pv_9_pv_12_2 >= 0
 t_activation_net16_pv_9_pv_12_3_2: t_net16_c_r[3,2]
   - y_net16_edge_pv_9_pv_12_2 >= 0
 logical_constraint_net16_pv_9_pv_12_i_index_minus_1_2: - t_eol_c_r[1,2]
   - t_net16_c_r[1,2] + y_net16_edge_pv_9_pv_12_2 <= 0
 logical_constraint_net16_pv_9_pv_12_j_index_2: - t_eol_c_r[4,2]
   - t_net16_c_r[4,2] + y_net16_edge_pv_9_pv_12_2 <= 0
 t_activation_net16_nv_9_nv_12_2_1: t_net16_c_r[2,1]
   - y_net16_edge_nv_9_nv_12_1 >= 0
 t_activation_net16_nv_9_nv_12_3_1: t_net16_c_r[3,1]
   - y_net16_edge_nv_9_nv_12_1 >= 0
 logical_constraint_net16_nv_9_nv_12_i_index_minus_1_1: - t_eol_c_r[1,1]
   - t_net16_c_r[1,1] + y_net16_edge_nv_9_nv_12_1 <= 0
 logical_constraint_net16_nv_9_nv_12_j_index_1: - t_eol_c_r[4,1]
   - t_net16_c_r[4,1] + y_net16_edge_nv_9_nv_12_1 <= 0
 t_activation_net16_nv_9_nv_12_2_0: t_net16_c_r[2,0]
   - y_net16_edge_nv_9_nv_12_0 >= 0
 t_activation_net16_nv_9_nv_12_3_0: t_net16_c_r[3,0]
   - y_net16_edge_nv_9_nv_12_0 >= 0
 logical_constraint_net16_nv_9_nv_12_i_index_minus_1_0: - t_eol_c_r[1,0]
   - t_net16_c_r[1,0] + y_net16_edge_nv_9_nv_12_0 <= 0
 logical_constraint_net16_nv_9_nv_12_j_index_0: - t_eol_c_r[4,0]
   - t_net16_c_r[4,0] + y_net16_edge_nv_9_nv_12_0 <= 0
 t_activation_net16_pv_12_pv_15_3_3: t_net16_c_r[3,3]
   - y_net16_edge_pv_12_pv_15_3 >= 0
 t_activation_net16_pv_12_pv_15_4_3: t_net16_c_r[4,3]
   - y_net16_edge_pv_12_pv_15_3 >= 0
 logical_constraint_net16_pv_12_pv_15_i_index_minus_1_3: - t_eol_c_r[2,3]
   - t_net16_c_r[2,3] + y_net16_edge_pv_12_pv_15_3 <= 0
 t_activation_net16_pv_12_pv_15_3_2: t_net16_c_r[3,2]
   - y_net16_edge_pv_12_pv_15_2 >= 0
 t_activation_net16_pv_12_pv_15_4_2: t_net16_c_r[4,2]
   - y_net16_edge_pv_12_pv_15_2 >= 0
 logical_constraint_net16_pv_12_pv_15_i_index_minus_1_2: - t_eol_c_r[2,2]
   - t_net16_c_r[2,2] + y_net16_edge_pv_12_pv_15_2 <= 0
 t_activation_net16_nv_12_nv_15_3_1: t_net16_c_r[3,1]
   - y_net16_edge_nv_12_nv_15_1 >= 0
 t_activation_net16_nv_12_nv_15_4_1: t_net16_c_r[4,1]
   - y_net16_edge_nv_12_nv_15_1 >= 0
 logical_constraint_net16_nv_12_nv_15_i_index_minus_1_1: - t_eol_c_r[2,1]
   - t_net16_c_r[2,1] + y_net16_edge_nv_12_nv_15_1 <= 0
 t_activation_net16_nv_12_nv_15_3_0: t_net16_c_r[3,0]
   - y_net16_edge_nv_12_nv_15_0 >= 0
 t_activation_net16_nv_12_nv_15_4_0: t_net16_c_r[4,0]
   - y_net16_edge_nv_12_nv_15_0 >= 0
 logical_constraint_net16_nv_12_nv_15_i_index_minus_1_0: - t_eol_c_r[2,0]
   - t_net16_c_r[2,0] + y_net16_edge_nv_12_nv_15_0 <= 0
 t_activation_net16_m1_4_m1_8_0_7: ut_net16_c_r[0,7]
   - y_net16_edge_m1_4_m1_8_r_7 >= 0
 t_activation_net16_m1_4_m1_8_1_7: ut_net16_c_r[1,7]
   - y_net16_edge_m1_4_m1_8_r_7 >= 0
 t_activation_net16_m1_4_m1_8_2_7: ut_net16_c_r[2,7]
   - y_net16_edge_m1_4_m1_8_r_7 >= 0
 logical_constraint_net16_m1_4_m1_8_j_index_7: - ut_eol_c_r[3,7]
   - ut_net16_c_r[3,7] + y_net16_edge_m1_4_m1_8_r_7 <= 0
 t_activation_net16_m1_4_m1_8_0_6: ut_net16_c_r[0,6]
   - y_net16_edge_m1_4_m1_8_r_6 >= 0
 t_activation_net16_m1_4_m1_8_1_6: ut_net16_c_r[1,6]
   - y_net16_edge_m1_4_m1_8_r_6 >= 0
 t_activation_net16_m1_4_m1_8_2_6: ut_net16_c_r[2,6]
   - y_net16_edge_m1_4_m1_8_r_6 >= 0
 logical_constraint_net16_m1_4_m1_8_j_index_6: - ut_eol_c_r[3,6]
   - ut_net16_c_r[3,6] + y_net16_edge_m1_4_m1_8_r_6 <= 0
 t_activation_net16_m1_4_m1_8_0_5: ut_net16_c_r[0,5]
   - y_net16_edge_m1_4_m1_8_r_5 >= 0
 t_activation_net16_m1_4_m1_8_1_5: ut_net16_c_r[1,5]
   - y_net16_edge_m1_4_m1_8_r_5 >= 0
 t_activation_net16_m1_4_m1_8_2_5: ut_net16_c_r[2,5]
   - y_net16_edge_m1_4_m1_8_r_5 >= 0
 logical_constraint_net16_m1_4_m1_8_j_index_5: - ut_eol_c_r[3,5]
   - ut_net16_c_r[3,5] + y_net16_edge_m1_4_m1_8_r_5 <= 0
 t_activation_net16_m1_4_m1_8_0_4: ut_net16_c_r[0,4]
   - y_net16_edge_m1_4_m1_8_r_4 >= 0
 t_activation_net16_m1_4_m1_8_1_4: ut_net16_c_r[1,4]
   - y_net16_edge_m1_4_m1_8_r_4 >= 0
 t_activation_net16_m1_4_m1_8_2_4: ut_net16_c_r[2,4]
   - y_net16_edge_m1_4_m1_8_r_4 >= 0
 logical_constraint_net16_m1_4_m1_8_j_index_4: - ut_eol_c_r[3,4]
   - ut_net16_c_r[3,4] + y_net16_edge_m1_4_m1_8_r_4 <= 0
 t_activation_net16_m1_8_m1_12_1_7: ut_net16_c_r[1,7]
   - y_net16_edge_m1_8_m1_12_r_7 >= 0
 t_activation_net16_m1_8_m1_12_2_7: ut_net16_c_r[2,7]
   - y_net16_edge_m1_8_m1_12_r_7 >= 0
 t_activation_net16_m1_8_m1_12_3_7: ut_net16_c_r[3,7]
   - y_net16_edge_m1_8_m1_12_r_7 >= 0
 logical_constraint_net16_m1_8_m1_12_i_index_minus_2_7: - ut_eol_c_r[0,7]
   - ut_net16_c_r[0,7] + y_net16_edge_m1_8_m1_12_r_7 <= 0
 logical_constraint_net16_m1_8_m1_12_j_index_7: - ut_eol_c_r[4,7]
   - ut_net16_c_r[4,7] + y_net16_edge_m1_8_m1_12_r_7 <= 0
 t_activation_net16_m1_8_m1_12_1_6: ut_net16_c_r[1,6]
   - y_net16_edge_m1_8_m1_12_r_6 >= 0
 t_activation_net16_m1_8_m1_12_2_6: ut_net16_c_r[2,6]
   - y_net16_edge_m1_8_m1_12_r_6 >= 0
 t_activation_net16_m1_8_m1_12_3_6: ut_net16_c_r[3,6]
   - y_net16_edge_m1_8_m1_12_r_6 >= 0
 logical_constraint_net16_m1_8_m1_12_i_index_minus_2_6: - ut_eol_c_r[0,6]
   - ut_net16_c_r[0,6] + y_net16_edge_m1_8_m1_12_r_6 <= 0
 logical_constraint_net16_m1_8_m1_12_j_index_6: - ut_eol_c_r[4,6]
   - ut_net16_c_r[4,6] + y_net16_edge_m1_8_m1_12_r_6 <= 0
 t_activation_net16_m1_8_m1_12_1_5: ut_net16_c_r[1,5]
   - y_net16_edge_m1_8_m1_12_r_5 >= 0
 t_activation_net16_m1_8_m1_12_2_5: ut_net16_c_r[2,5]
   - y_net16_edge_m1_8_m1_12_r_5 >= 0
 t_activation_net16_m1_8_m1_12_3_5: ut_net16_c_r[3,5]
   - y_net16_edge_m1_8_m1_12_r_5 >= 0
 logical_constraint_net16_m1_8_m1_12_i_index_minus_2_5: - ut_eol_c_r[0,5]
   - ut_net16_c_r[0,5] + y_net16_edge_m1_8_m1_12_r_5 <= 0
 logical_constraint_net16_m1_8_m1_12_j_index_5: - ut_eol_c_r[4,5]
   - ut_net16_c_r[4,5] + y_net16_edge_m1_8_m1_12_r_5 <= 0
 t_activation_net16_m1_8_m1_12_1_4: ut_net16_c_r[1,4]
   - y_net16_edge_m1_8_m1_12_r_4 >= 0
 t_activation_net16_m1_8_m1_12_2_4: ut_net16_c_r[2,4]
   - y_net16_edge_m1_8_m1_12_r_4 >= 0
 t_activation_net16_m1_8_m1_12_3_4: ut_net16_c_r[3,4]
   - y_net16_edge_m1_8_m1_12_r_4 >= 0
 logical_constraint_net16_m1_8_m1_12_i_index_minus_2_4: - ut_eol_c_r[0,4]
   - ut_net16_c_r[0,4] + y_net16_edge_m1_8_m1_12_r_4 <= 0
 logical_constraint_net16_m1_8_m1_12_j_index_4: - ut_eol_c_r[4,4]
   - ut_net16_c_r[4,4] + y_net16_edge_m1_8_m1_12_r_4 <= 0
 flow_conservation_net16_ac_3: f_net16_edge_connector_pv_3_ac_3_co
   + f_net16_edge_connector_nv_3_ac_3_co - cap_net16_ac_3 = 0
 flow_conservation_net16_nn_3: f_net16_edge_connector_nv_3_nn_3_co
   - cap_net16_nn_3 = 0
 middle_node_net16_nv_3: cap_net16_nv_3 = 0
 flow_conservation_net16_nv_3: - f_net16_edge_connector_nv_3_nn_3_co
   - f_net16_edge_connector_nv_3_ac_3_co - f_net16_edge_nv_3_nv_4_1
   - f_net16_edge_nv_3_nv_4_0 - cap_net16_nv_3 = 0
 flow_conservation_net16_pp_3: f_net16_edge_connector_pv_3_pp_3_co
   - cap_net16_pp_3 = 0
 middle_node_net16_pv_3: cap_net16_pv_3 = 0
 flow_conservation_net16_pv_3: - f_net16_edge_connector_pv_3_pp_3_co
   - f_net16_edge_connector_pv_3_ac_3_co - f_net16_edge_pv_3_pv_4_3
   - f_net16_edge_pv_3_pv_4_2 - cap_net16_pv_3 = 0
 middle_node_net16_m1_4: cap_net16_m1_4 = 0
 flow_conservation_net16_m1_4: - f_net16_edge_via_enable_m1_4_pv_4
   - f_net16_edge_via_enable_m1_4_nv_4 - f_net16_edge_m1_4_m1_8_r_7
   - f_net16_edge_m1_4_m1_8_r_6 - f_net16_edge_m1_4_m1_8_r_5
   - f_net16_edge_m1_4_m1_8_r_4 - cap_net16_m1_4 = 0
 middle_node_net16_nv_4: cap_net16_nv_4 = 0
 flow_conservation_net16_nv_4: f_net16_edge_nv_3_nv_4_1
   + f_net16_edge_nv_3_nv_4_0 - f_net16_edge_nv_4_nv_6_1
   - f_net16_edge_nv_4_nv_6_0 + f_net16_edge_via_enable_m1_4_nv_4
   - cap_net16_nv_4 = 0
 middle_node_net16_pv_4: cap_net16_pv_4 = 0
 flow_conservation_net16_pv_4: f_net16_edge_pv_3_pv_4_3
   + f_net16_edge_pv_3_pv_4_2 - f_net16_edge_pv_4_pv_6_3
   - f_net16_edge_pv_4_pv_6_2 + f_net16_edge_via_enable_m1_4_pv_4
   - cap_net16_pv_4 = 0
 flow_conservation_net16_ac_6: f_net16_edge_connector_pv_6_ac_6_co
   + f_net16_edge_connector_nv_6_ac_6_co - cap_net16_ac_6 = 0
 flow_conservation_net16_nn_6: f_net16_edge_connector_nv_6_nn_6_co
   - cap_net16_nn_6 = 0
 middle_node_net16_nv_6: cap_net16_nv_6 = 0
 flow_conservation_net16_nv_6: - f_net16_edge_connector_nv_6_nn_6_co
   - f_net16_edge_connector_nv_6_ac_6_co + f_net16_edge_nv_4_nv_6_1
   + f_net16_edge_nv_4_nv_6_0 - f_net16_edge_nv_6_nv_8_1
   - f_net16_edge_nv_6_nv_8_0 - cap_net16_nv_6 = 0
 flow_conservation_net16_pp_6: f_net16_edge_connector_pv_6_pp_6_co
   - cap_net16_pp_6 = 0
 middle_node_net16_pv_6: cap_net16_pv_6 = 0
 flow_conservation_net16_pv_6: - f_net16_edge_connector_pv_6_pp_6_co
   - f_net16_edge_connector_pv_6_ac_6_co + f_net16_edge_pv_4_pv_6_3
   + f_net16_edge_pv_4_pv_6_2 - f_net16_edge_pv_6_pv_8_3
   - f_net16_edge_pv_6_pv_8_2 - cap_net16_pv_6 = 0
 middle_node_net16_m1_8: cap_net16_m1_8 = 0
 flow_conservation_net16_m1_8: f_net16_edge_m1_4_m1_8_r_7
   + f_net16_edge_m1_4_m1_8_r_6 + f_net16_edge_m1_4_m1_8_r_5
   + f_net16_edge_m1_4_m1_8_r_4 - f_net16_edge_via_enable_m1_8_pv_8
   - f_net16_edge_via_enable_m1_8_nv_8 - f_net16_edge_m1_8_m1_12_r_7
   - f_net16_edge_m1_8_m1_12_r_6 - f_net16_edge_m1_8_m1_12_r_5
   - f_net16_edge_m1_8_m1_12_r_4 - cap_net16_m1_8 = 0
 middle_node_net16_nv_8: cap_net16_nv_8 = 0
 flow_conservation_net16_nv_8: f_net16_edge_nv_6_nv_8_1
   + f_net16_edge_nv_6_nv_8_0 - f_net16_edge_nv_8_nv_9_1
   - f_net16_edge_nv_8_nv_9_0 + f_net16_edge_via_enable_m1_8_nv_8
   - cap_net16_nv_8 = 0
 middle_node_net16_pv_8: cap_net16_pv_8 = 0
 flow_conservation_net16_pv_8: f_net16_edge_pv_6_pv_8_3
   + f_net16_edge_pv_6_pv_8_2 - f_net16_edge_pv_8_pv_9_3
   - f_net16_edge_pv_8_pv_9_2 + f_net16_edge_via_enable_m1_8_pv_8
   - cap_net16_pv_8 = 0
 flow_conservation_net16_ac_9: f_net16_edge_connector_pv_9_ac_9_co
   + f_net16_edge_connector_nv_9_ac_9_co - cap_net16_ac_9 = 0
 flow_conservation_net16_nn_9: f_net16_edge_connector_nv_9_nn_9_co
   - cap_net16_nn_9 = 0
 middle_node_net16_nv_9: cap_net16_nv_9 = 0
 flow_conservation_net16_nv_9: - f_net16_edge_connector_nv_9_nn_9_co
   - f_net16_edge_connector_nv_9_ac_9_co + f_net16_edge_nv_8_nv_9_1
   + f_net16_edge_nv_8_nv_9_0 - f_net16_edge_nv_9_nv_12_1
   - f_net16_edge_nv_9_nv_12_0 - cap_net16_nv_9 = 0
 flow_conservation_net16_pp_9: f_net16_edge_connector_pv_9_pp_9_co
   - cap_net16_pp_9 = 0
 middle_node_net16_pv_9: cap_net16_pv_9 = 0
 flow_conservation_net16_pv_9: - f_net16_edge_connector_pv_9_pp_9_co
   - f_net16_edge_connector_pv_9_ac_9_co + f_net16_edge_pv_8_pv_9_3
   + f_net16_edge_pv_8_pv_9_2 - f_net16_edge_pv_9_pv_12_3
   - f_net16_edge_pv_9_pv_12_2 - cap_net16_pv_9 = 0
 flow_conservation_net16_ac_12: f_net16_edge_connector_pv_12_ac_12_co
   + f_net16_edge_connector_nv_12_ac_12_co - cap_net16_ac_12 = 0
 middle_node_net16_m1_12: cap_net16_m1_12 = 0
 flow_conservation_net16_m1_12: f_net16_edge_m1_8_m1_12_r_7
   + f_net16_edge_m1_8_m1_12_r_6 + f_net16_edge_m1_8_m1_12_r_5
   + f_net16_edge_m1_8_m1_12_r_4 - f_net16_edge_via_enable_m1_12_pv_12
   - f_net16_edge_via_enable_m1_12_nv_12 - cap_net16_m1_12 = 0
 flow_conservation_net16_nn_12: f_net16_edge_connector_nv_12_nn_12_co
   - cap_net16_nn_12 = 0
 middle_node_net16_nv_12: cap_net16_nv_12 = 0
 flow_conservation_net16_nv_12: - f_net16_edge_connector_nv_12_nn_12_co
   - f_net16_edge_connector_nv_12_ac_12_co + f_net16_edge_nv_9_nv_12_1
   + f_net16_edge_nv_9_nv_12_0 - f_net16_edge_nv_12_nv_15_1
   - f_net16_edge_nv_12_nv_15_0 + f_net16_edge_via_enable_m1_12_nv_12
   - cap_net16_nv_12 = 0
 flow_conservation_net16_pp_12: f_net16_edge_connector_pv_12_pp_12_co
   - cap_net16_pp_12 = 0
 middle_node_net16_pv_12: cap_net16_pv_12 = 0
 flow_conservation_net16_pv_12: - f_net16_edge_connector_pv_12_pp_12_co
   - f_net16_edge_connector_pv_12_ac_12_co + f_net16_edge_pv_9_pv_12_3
   + f_net16_edge_pv_9_pv_12_2 - f_net16_edge_pv_12_pv_15_3
   - f_net16_edge_pv_12_pv_15_2 + f_net16_edge_via_enable_m1_12_pv_12
   - cap_net16_pv_12 = 0
 flow_conservation_net16_ac_15: f_net16_edge_connector_pv_15_ac_15_co
   + f_net16_edge_connector_nv_15_ac_15_co - cap_net16_ac_15 = 0
 flow_conservation_net16_nn_15: f_net16_edge_connector_nv_15_nn_15_co
   - cap_net16_nn_15 = 0
 middle_node_net16_nv_15: cap_net16_nv_15 = 0
 flow_conservation_net16_nv_15: - f_net16_edge_connector_nv_15_nn_15_co
   - f_net16_edge_connector_nv_15_ac_15_co + f_net16_edge_nv_12_nv_15_1
   + f_net16_edge_nv_12_nv_15_0 - cap_net16_nv_15 = 0
 flow_conservation_net16_pp_15: f_net16_edge_connector_pv_15_pp_15_co
   - cap_net16_pp_15 = 0
 middle_node_net16_pv_15: cap_net16_pv_15 = 0
 flow_conservation_net16_pv_15: - f_net16_edge_connector_pv_15_pp_15_co
   - f_net16_edge_connector_pv_15_ac_15_co + f_net16_edge_pv_12_pv_15_3
   + f_net16_edge_pv_12_pv_15_2 - cap_net16_pv_15 = 0
 root_find_A1_pp_3: indicator_A1_pp_3 - root_node_A1_pp_3 >= 0
 root_find_A1_nn_3: indicator_A1_nn_3 - root_node_A1_nn_3 >= 0
 root_find_A1_ac_3: indicator_A1_ac_3 - root_node_A1_ac_3 >= 0
 max_indicator_find_A1_pp_3: indicator_A1_pp_3 - max_indicator_A1_pp_3
   >= 0
 max_indicator_find_A1_nn_3: indicator_A1_nn_3 - max_indicator_A1_nn_3
   >= 0
 max_indicator_find_A1_ac_3: indicator_A1_ac_3 - max_indicator_A1_ac_3
   >= 0
 lower_bound_A1_ac_3: - pmos_net_A1_c0 - nmos_net_A1_c0 + indicator_A1_ac_3
   >= -1
 upper_bound_v1_A1_ac_3: - pmos_net_A1_c0 + indicator_A1_ac_3 <= 0
 upper_bound_v2_A1_ac_3: - nmos_net_A1_c0 + indicator_A1_ac_3 <= 0
 combined_net_A1_pp_3: - pmos_net_A1_c0 + indicator_A1_pp_3
   + indicator_A1_ac_3 = 0
 combined_net_A1_nn_3: - nmos_net_A1_c0 + indicator_A1_nn_3
   + indicator_A1_ac_3 = 0
 min_indicator_constr_p_A1_0: min_indicator_A1 + 5 indicator_A1_pp_3 <= 5
 min_indicator_constr_n_A1_0: min_indicator_A1 + 5 indicator_A1_nn_3 <= 5
 min_indicator_constr_a_A1_0: min_indicator_A1 + 5 indicator_A1_ac_3 <= 5
 root_node_match_p_A1_0: - min_indicator_A1 <= 0
 root_node_match_n_A1_0: - min_indicator_A1 <= 0
 root_node_match_a_A1_0: - min_indicator_A1 <= 0
 max_bbox_constr_p_A1_0: max_bbox_A1 - 5 indicator_A1_pp_3 >= -5
 max_bbox_constr_n_A1_0: max_bbox_A1 - 5 indicator_A1_nn_3 >= -5
 max_bbox_constr_a_A1_0: max_bbox_A1 - 5 indicator_A1_ac_3 >= -5
 max_indicator_match_p_A1_0: - max_bbox_A1 - 4 max_indicator_A1_pp_3 >= -4
 max_indicator_match_n_A1_0: - max_bbox_A1 - 4 max_indicator_A1_nn_3 >= -4
 max_indicator_match_a_A1_0: - max_bbox_A1 - 4 max_indicator_A1_ac_3 >= -4
 root_find_A1_pp_6: indicator_A1_pp_6 - root_node_A1_pp_6 >= 0
 root_find_A1_nn_6: indicator_A1_nn_6 - root_node_A1_nn_6 >= 0
 root_find_A1_ac_6: indicator_A1_ac_6 - root_node_A1_ac_6 >= 0
 max_indicator_find_A1_pp_6: indicator_A1_pp_6 - max_indicator_A1_pp_6
   >= 0
 max_indicator_find_A1_nn_6: indicator_A1_nn_6 - max_indicator_A1_nn_6
   >= 0
 max_indicator_find_A1_ac_6: indicator_A1_ac_6 - max_indicator_A1_ac_6
   >= 0
 lower_bound_A1_ac_6: - pmos_net_A1_c1 - nmos_net_A1_c1 + indicator_A1_ac_6
   >= -1
 upper_bound_v1_A1_ac_6: - pmos_net_A1_c1 + indicator_A1_ac_6 <= 0
 upper_bound_v2_A1_ac_6: - nmos_net_A1_c1 + indicator_A1_ac_6 <= 0
 combined_net_A1_pp_6: - pmos_net_A1_c1 + indicator_A1_pp_6
   + indicator_A1_ac_6 = 0
 combined_net_A1_nn_6: - nmos_net_A1_c1 + indicator_A1_nn_6
   + indicator_A1_ac_6 = 0
 min_indicator_constr_p_A1_1: min_indicator_A1 + 5 indicator_A1_pp_6 <= 6
 min_indicator_constr_n_A1_1: min_indicator_A1 + 5 indicator_A1_nn_6 <= 6
 min_indicator_constr_a_A1_1: min_indicator_A1 + 5 indicator_A1_ac_6 <= 6
 root_node_match_p_A1_1: - min_indicator_A1 + root_node_A1_pp_6 <= 0
 root_node_match_n_A1_1: - min_indicator_A1 + root_node_A1_nn_6 <= 0
 root_node_match_a_A1_1: - min_indicator_A1 + root_node_A1_ac_6 <= 0
 max_bbox_constr_p_A1_1: max_bbox_A1 - 5 indicator_A1_pp_6 >= -4
 max_bbox_constr_n_A1_1: max_bbox_A1 - 5 indicator_A1_nn_6 >= -4
 max_bbox_constr_a_A1_1: max_bbox_A1 - 5 indicator_A1_ac_6 >= -4
 max_indicator_match_p_A1_1: - max_bbox_A1 - 3 max_indicator_A1_pp_6 >= -4
 max_indicator_match_n_A1_1: - max_bbox_A1 - 3 max_indicator_A1_nn_6 >= -4
 max_indicator_match_a_A1_1: - max_bbox_A1 - 3 max_indicator_A1_ac_6 >= -4
 root_find_A1_pp_9: indicator_A1_pp_9 - root_node_A1_pp_9 >= 0
 root_find_A1_nn_9: indicator_A1_nn_9 - root_node_A1_nn_9 >= 0
 root_find_A1_ac_9: indicator_A1_ac_9 - root_node_A1_ac_9 >= 0
 max_indicator_find_A1_pp_9: indicator_A1_pp_9 - max_indicator_A1_pp_9
   >= 0
 max_indicator_find_A1_nn_9: indicator_A1_nn_9 - max_indicator_A1_nn_9
   >= 0
 max_indicator_find_A1_ac_9: indicator_A1_ac_9 - max_indicator_A1_ac_9
   >= 0
 lower_bound_A1_ac_9: - pmos_net_A1_c2 - nmos_net_A1_c2 + indicator_A1_ac_9
   >= -1
 upper_bound_v1_A1_ac_9: - pmos_net_A1_c2 + indicator_A1_ac_9 <= 0
 upper_bound_v2_A1_ac_9: - nmos_net_A1_c2 + indicator_A1_ac_9 <= 0
 combined_net_A1_pp_9: - pmos_net_A1_c2 + indicator_A1_pp_9
   + indicator_A1_ac_9 = 0
 combined_net_A1_nn_9: - nmos_net_A1_c2 + indicator_A1_nn_9
   + indicator_A1_ac_9 = 0
 min_indicator_constr_p_A1_2: min_indicator_A1 + 5 indicator_A1_pp_9 <= 7
 min_indicator_constr_n_A1_2: min_indicator_A1 + 5 indicator_A1_nn_9 <= 7
 min_indicator_constr_a_A1_2: min_indicator_A1 + 5 indicator_A1_ac_9 <= 7
 root_node_match_p_A1_2: - min_indicator_A1 + 2 root_node_A1_pp_9 <= 0
 root_node_match_n_A1_2: - min_indicator_A1 + 2 root_node_A1_nn_9 <= 0
 root_node_match_a_A1_2: - min_indicator_A1 + 2 root_node_A1_ac_9 <= 0
 max_bbox_constr_p_A1_2: max_bbox_A1 - 5 indicator_A1_pp_9 >= -3
 max_bbox_constr_n_A1_2: max_bbox_A1 - 5 indicator_A1_nn_9 >= -3
 max_bbox_constr_a_A1_2: max_bbox_A1 - 5 indicator_A1_ac_9 >= -3
 max_indicator_match_p_A1_2: - max_bbox_A1 - 2 max_indicator_A1_pp_9 >= -4
 max_indicator_match_n_A1_2: - max_bbox_A1 - 2 max_indicator_A1_nn_9 >= -4
 max_indicator_match_a_A1_2: - max_bbox_A1 - 2 max_indicator_A1_ac_9 >= -4
 root_find_A1_pp_12: indicator_A1_pp_12 - root_node_A1_pp_12 >= 0
 root_find_A1_nn_12: indicator_A1_nn_12 - root_node_A1_nn_12 >= 0
 root_find_A1_ac_12: indicator_A1_ac_12 - root_node_A1_ac_12 >= 0
 max_indicator_find_A1_pp_12: indicator_A1_pp_12 - max_indicator_A1_pp_12
   >= 0
 max_indicator_find_A1_nn_12: indicator_A1_nn_12 - max_indicator_A1_nn_12
   >= 0
 max_indicator_find_A1_ac_12: indicator_A1_ac_12 - max_indicator_A1_ac_12
   >= 0
 lower_bound_A1_ac_12: - pmos_net_A1_c3 - nmos_net_A1_c3
   + indicator_A1_ac_12 >= -1
 upper_bound_v1_A1_ac_12: - pmos_net_A1_c3 + indicator_A1_ac_12 <= 0
 upper_bound_v2_A1_ac_12: - nmos_net_A1_c3 + indicator_A1_ac_12 <= 0
 combined_net_A1_pp_12: - pmos_net_A1_c3 + indicator_A1_pp_12
   + indicator_A1_ac_12 = 0
 combined_net_A1_nn_12: - nmos_net_A1_c3 + indicator_A1_nn_12
   + indicator_A1_ac_12 = 0
 min_indicator_constr_p_A1_3: min_indicator_A1 + 5 indicator_A1_pp_12 <= 8
 min_indicator_constr_n_A1_3: min_indicator_A1 + 5 indicator_A1_nn_12 <= 8
 min_indicator_constr_a_A1_3: min_indicator_A1 + 5 indicator_A1_ac_12 <= 8
 root_node_match_p_A1_3: - min_indicator_A1 + 3 root_node_A1_pp_12 <= 0
 root_node_match_n_A1_3: - min_indicator_A1 + 3 root_node_A1_nn_12 <= 0
 root_node_match_a_A1_3: - min_indicator_A1 + 3 root_node_A1_ac_12 <= 0
 max_bbox_constr_p_A1_3: max_bbox_A1 - 5 indicator_A1_pp_12 >= -2
 max_bbox_constr_n_A1_3: max_bbox_A1 - 5 indicator_A1_nn_12 >= -2
 max_bbox_constr_a_A1_3: max_bbox_A1 - 5 indicator_A1_ac_12 >= -2
 max_indicator_match_p_A1_3: - max_bbox_A1 - max_indicator_A1_pp_12 >= -4
 max_indicator_match_n_A1_3: - max_bbox_A1 - max_indicator_A1_nn_12 >= -4
 max_indicator_match_a_A1_3: - max_bbox_A1 - max_indicator_A1_ac_12 >= -4
 root_find_A1_pp_15: indicator_A1_pp_15 - root_node_A1_pp_15 >= 0
 root_find_A1_nn_15: indicator_A1_nn_15 - root_node_A1_nn_15 >= 0
 root_find_A1_ac_15: indicator_A1_ac_15 - root_node_A1_ac_15 >= 0
 max_indicator_find_A1_pp_15: indicator_A1_pp_15 - max_indicator_A1_pp_15
   >= 0
 max_indicator_find_A1_nn_15: indicator_A1_nn_15 - max_indicator_A1_nn_15
   >= 0
 max_indicator_find_A1_ac_15: indicator_A1_ac_15 - max_indicator_A1_ac_15
   >= 0
 lower_bound_A1_ac_15: - pmos_net_A1_c4 - nmos_net_A1_c4
   + indicator_A1_ac_15 >= -1
 upper_bound_v1_A1_ac_15: - pmos_net_A1_c4 + indicator_A1_ac_15 <= 0
 upper_bound_v2_A1_ac_15: - nmos_net_A1_c4 + indicator_A1_ac_15 <= 0
 combined_net_A1_pp_15: - pmos_net_A1_c4 + indicator_A1_pp_15
   + indicator_A1_ac_15 = 0
 combined_net_A1_nn_15: - nmos_net_A1_c4 + indicator_A1_nn_15
   + indicator_A1_ac_15 = 0
 min_indicator_constr_p_A1_4: min_indicator_A1 + 5 indicator_A1_pp_15 <= 9
 min_indicator_constr_n_A1_4: min_indicator_A1 + 5 indicator_A1_nn_15 <= 9
 min_indicator_constr_a_A1_4: min_indicator_A1 + 5 indicator_A1_ac_15 <= 9
 root_node_match_p_A1_4: - min_indicator_A1 + 4 root_node_A1_pp_15 <= 0
 root_node_match_n_A1_4: - min_indicator_A1 + 4 root_node_A1_nn_15 <= 0
 root_node_match_a_A1_4: - min_indicator_A1 + 4 root_node_A1_ac_15 <= 0
 max_bbox_constr_p_A1_4: max_bbox_A1 - 5 indicator_A1_pp_15 >= -1
 max_bbox_constr_n_A1_4: max_bbox_A1 - 5 indicator_A1_nn_15 >= -1
 max_bbox_constr_a_A1_4: max_bbox_A1 - 5 indicator_A1_ac_15 >= -1
 max_indicator_match_p_A1_4: - max_bbox_A1 >= -4
 max_indicator_match_n_A1_4: - max_bbox_A1 >= -4
 max_indicator_match_a_A1_4: - max_bbox_A1 >= -4
 one_root_node_enable_A1: root_node_A1_pp_3 + root_node_A1_nn_3
   + root_node_A1_ac_3 + root_node_A1_pp_6 + root_node_A1_nn_6
   + root_node_A1_ac_6 + root_node_A1_pp_9 + root_node_A1_nn_9
   + root_node_A1_ac_9 + root_node_A1_pp_12 + root_node_A1_nn_12
   + root_node_A1_ac_12 + root_node_A1_pp_15 + root_node_A1_nn_15
   + root_node_A1_ac_15 = 1
 one_max_indicator_enable_A1: max_indicator_A1_pp_3 + max_indicator_A1_nn_3
   + max_indicator_A1_ac_3 + max_indicator_A1_pp_6 + max_indicator_A1_nn_6
   + max_indicator_A1_ac_6 + max_indicator_A1_pp_9 + max_indicator_A1_nn_9
   + max_indicator_A1_ac_9 + max_indicator_A1_pp_12
   + max_indicator_A1_nn_12 + max_indicator_A1_ac_12
   + max_indicator_A1_pp_15 + max_indicator_A1_nn_15
   + max_indicator_A1_ac_15 = 1
 y_detector_dtermine_lb_A1_nv_12: - indicator_A1_pp_3 - indicator_A1_nn_3
   - indicator_A1_ac_3 - indicator_A1_pp_6 - indicator_A1_nn_6
   - indicator_A1_ac_6 - indicator_A1_pp_9 - indicator_A1_nn_9
   - indicator_A1_ac_9 - indicator_A1_pp_12 - indicator_A1_nn_12
   - indicator_A1_ac_12 - indicator_A1_pp_15 - indicator_A1_nn_15
   - indicator_A1_ac_15 + 5 io_detector_A1 >= 0
 y_detector_dtermine_ub_A1_nv_12: - indicator_A1_pp_3 - indicator_A1_nn_3
   - indicator_A1_ac_3 - indicator_A1_pp_6 - indicator_A1_nn_6
   - indicator_A1_ac_6 - indicator_A1_pp_9 - indicator_A1_nn_9
   - indicator_A1_ac_9 - indicator_A1_pp_12 - indicator_A1_nn_12
   - indicator_A1_ac_12 - indicator_A1_pp_15 - indicator_A1_nn_15
   - indicator_A1_ac_15 + io_detector_A1 <= 0
 on_off_constraint_by_indicator_A1_pv_3_pp_3_co: - indicator_A1_pp_3
   + y_A1_edge_connector_pv_3_pp_3_co <= 0
 on_off_constraint_by_sum_actives_A1_pv_3_pp_3_co: - io_detector_A1
   + y_A1_edge_connector_pv_3_pp_3_co <= 0
 on_off_constraint_by_mixing_A1_pv_3_pp_3_co: - indicator_A1_pp_3
   - io_detector_A1 + y_A1_edge_connector_pv_3_pp_3_co >= -1
 edge_flow_ub_A1_pv_3_pp_3_ve: - 2 y_A1_edge_connector_pv_3_pp_3_co
   + f_A1_edge_connector_pv_3_pp_3_co <= 0
 edge_flow_lb_A1_pv_3_pp_3_ve: 2 y_A1_edge_connector_pv_3_pp_3_co
   + f_A1_edge_connector_pv_3_pp_3_co >= 0
 on_off_constraint_by_indicator_A1_pv_3_ac_3_co: - indicator_A1_ac_3
   + y_A1_edge_connector_pv_3_ac_3_co <= 0
 on_off_constraint_by_sum_actives_A1_pv_3_ac_3_co: - io_detector_A1
   + y_A1_edge_connector_pv_3_ac_3_co <= 0
 on_off_constraint_by_mixing_A1_pv_3_ac_3_co: - indicator_A1_ac_3
   - io_detector_A1 + y_A1_edge_connector_pv_3_ac_3_co >= -1
 edge_flow_ub_A1_pv_3_ac_3_ve: - 2 y_A1_edge_connector_pv_3_ac_3_co
   + f_A1_edge_connector_pv_3_ac_3_co <= 0
 edge_flow_lb_A1_pv_3_ac_3_ve: 2 y_A1_edge_connector_pv_3_ac_3_co
   + f_A1_edge_connector_pv_3_ac_3_co >= 0
 on_off_constraint_by_indicator_A1_nv_3_nn_3_co: - indicator_A1_nn_3
   + y_A1_edge_connector_nv_3_nn_3_co <= 0
 on_off_constraint_by_sum_actives_A1_nv_3_nn_3_co: - io_detector_A1
   + y_A1_edge_connector_nv_3_nn_3_co <= 0
 on_off_constraint_by_mixing_A1_nv_3_nn_3_co: - indicator_A1_nn_3
   - io_detector_A1 + y_A1_edge_connector_nv_3_nn_3_co >= -1
 edge_flow_ub_A1_nv_3_nn_3_ve: - 2 y_A1_edge_connector_nv_3_nn_3_co
   + f_A1_edge_connector_nv_3_nn_3_co <= 0
 edge_flow_lb_A1_nv_3_nn_3_ve: 2 y_A1_edge_connector_nv_3_nn_3_co
   + f_A1_edge_connector_nv_3_nn_3_co >= 0
 on_off_constraint_by_indicator_A1_nv_3_ac_3_co: - indicator_A1_ac_3
   + y_A1_edge_connector_nv_3_ac_3_co <= 0
 on_off_constraint_by_sum_actives_A1_nv_3_ac_3_co: - io_detector_A1
   + y_A1_edge_connector_nv_3_ac_3_co <= 0
 on_off_constraint_by_mixing_A1_nv_3_ac_3_co: - indicator_A1_ac_3
   - io_detector_A1 + y_A1_edge_connector_nv_3_ac_3_co >= -1
 edge_flow_ub_A1_nv_3_ac_3_ve: - 2 y_A1_edge_connector_nv_3_ac_3_co
   + f_A1_edge_connector_nv_3_ac_3_co <= 0
 edge_flow_lb_A1_nv_3_ac_3_ve: 2 y_A1_edge_connector_nv_3_ac_3_co
   + f_A1_edge_connector_nv_3_ac_3_co >= 0
 on_off_constraint_by_indicator_A1_pv_6_pp_6_co: - indicator_A1_pp_6
   + y_A1_edge_connector_pv_6_pp_6_co <= 0
 on_off_constraint_by_sum_actives_A1_pv_6_pp_6_co: - io_detector_A1
   + y_A1_edge_connector_pv_6_pp_6_co <= 0
 on_off_constraint_by_mixing_A1_pv_6_pp_6_co: - indicator_A1_pp_6
   - io_detector_A1 + y_A1_edge_connector_pv_6_pp_6_co >= -1
 edge_flow_ub_A1_pv_6_pp_6_ve: - 2 y_A1_edge_connector_pv_6_pp_6_co
   + f_A1_edge_connector_pv_6_pp_6_co <= 0
 edge_flow_lb_A1_pv_6_pp_6_ve: 2 y_A1_edge_connector_pv_6_pp_6_co
   + f_A1_edge_connector_pv_6_pp_6_co >= 0
 on_off_constraint_by_indicator_A1_pv_6_ac_6_co: - indicator_A1_ac_6
   + y_A1_edge_connector_pv_6_ac_6_co <= 0
 on_off_constraint_by_sum_actives_A1_pv_6_ac_6_co: - io_detector_A1
   + y_A1_edge_connector_pv_6_ac_6_co <= 0
 on_off_constraint_by_mixing_A1_pv_6_ac_6_co: - indicator_A1_ac_6
   - io_detector_A1 + y_A1_edge_connector_pv_6_ac_6_co >= -1
 edge_flow_ub_A1_pv_6_ac_6_ve: - 2 y_A1_edge_connector_pv_6_ac_6_co
   + f_A1_edge_connector_pv_6_ac_6_co <= 0
 edge_flow_lb_A1_pv_6_ac_6_ve: 2 y_A1_edge_connector_pv_6_ac_6_co
   + f_A1_edge_connector_pv_6_ac_6_co >= 0
 on_off_constraint_by_indicator_A1_nv_6_nn_6_co: - indicator_A1_nn_6
   + y_A1_edge_connector_nv_6_nn_6_co <= 0
 on_off_constraint_by_sum_actives_A1_nv_6_nn_6_co: - io_detector_A1
   + y_A1_edge_connector_nv_6_nn_6_co <= 0
 on_off_constraint_by_mixing_A1_nv_6_nn_6_co: - indicator_A1_nn_6
   - io_detector_A1 + y_A1_edge_connector_nv_6_nn_6_co >= -1
 edge_flow_ub_A1_nv_6_nn_6_ve: - 2 y_A1_edge_connector_nv_6_nn_6_co
   + f_A1_edge_connector_nv_6_nn_6_co <= 0
 edge_flow_lb_A1_nv_6_nn_6_ve: 2 y_A1_edge_connector_nv_6_nn_6_co
   + f_A1_edge_connector_nv_6_nn_6_co >= 0
 on_off_constraint_by_indicator_A1_nv_6_ac_6_co: - indicator_A1_ac_6
   + y_A1_edge_connector_nv_6_ac_6_co <= 0
 on_off_constraint_by_sum_actives_A1_nv_6_ac_6_co: - io_detector_A1
   + y_A1_edge_connector_nv_6_ac_6_co <= 0
 on_off_constraint_by_mixing_A1_nv_6_ac_6_co: - indicator_A1_ac_6
   - io_detector_A1 + y_A1_edge_connector_nv_6_ac_6_co >= -1
 edge_flow_ub_A1_nv_6_ac_6_ve: - 2 y_A1_edge_connector_nv_6_ac_6_co
   + f_A1_edge_connector_nv_6_ac_6_co <= 0
 edge_flow_lb_A1_nv_6_ac_6_ve: 2 y_A1_edge_connector_nv_6_ac_6_co
   + f_A1_edge_connector_nv_6_ac_6_co >= 0
 on_off_constraint_by_indicator_A1_pv_9_pp_9_co: - indicator_A1_pp_9
   + y_A1_edge_connector_pv_9_pp_9_co <= 0
 on_off_constraint_by_sum_actives_A1_pv_9_pp_9_co: - io_detector_A1
   + y_A1_edge_connector_pv_9_pp_9_co <= 0
 on_off_constraint_by_mixing_A1_pv_9_pp_9_co: - indicator_A1_pp_9
   - io_detector_A1 + y_A1_edge_connector_pv_9_pp_9_co >= -1
 edge_flow_ub_A1_pv_9_pp_9_ve: - 2 y_A1_edge_connector_pv_9_pp_9_co
   + f_A1_edge_connector_pv_9_pp_9_co <= 0
 edge_flow_lb_A1_pv_9_pp_9_ve: 2 y_A1_edge_connector_pv_9_pp_9_co
   + f_A1_edge_connector_pv_9_pp_9_co >= 0
 on_off_constraint_by_indicator_A1_pv_9_ac_9_co: - indicator_A1_ac_9
   + y_A1_edge_connector_pv_9_ac_9_co <= 0
 on_off_constraint_by_sum_actives_A1_pv_9_ac_9_co: - io_detector_A1
   + y_A1_edge_connector_pv_9_ac_9_co <= 0
 on_off_constraint_by_mixing_A1_pv_9_ac_9_co: - indicator_A1_ac_9
   - io_detector_A1 + y_A1_edge_connector_pv_9_ac_9_co >= -1
 edge_flow_ub_A1_pv_9_ac_9_ve: - 2 y_A1_edge_connector_pv_9_ac_9_co
   + f_A1_edge_connector_pv_9_ac_9_co <= 0
 edge_flow_lb_A1_pv_9_ac_9_ve: 2 y_A1_edge_connector_pv_9_ac_9_co
   + f_A1_edge_connector_pv_9_ac_9_co >= 0
 on_off_constraint_by_indicator_A1_nv_9_nn_9_co: - indicator_A1_nn_9
   + y_A1_edge_connector_nv_9_nn_9_co <= 0
 on_off_constraint_by_sum_actives_A1_nv_9_nn_9_co: - io_detector_A1
   + y_A1_edge_connector_nv_9_nn_9_co <= 0
 on_off_constraint_by_mixing_A1_nv_9_nn_9_co: - indicator_A1_nn_9
   - io_detector_A1 + y_A1_edge_connector_nv_9_nn_9_co >= -1
 edge_flow_ub_A1_nv_9_nn_9_ve: - 2 y_A1_edge_connector_nv_9_nn_9_co
   + f_A1_edge_connector_nv_9_nn_9_co <= 0
 edge_flow_lb_A1_nv_9_nn_9_ve: 2 y_A1_edge_connector_nv_9_nn_9_co
   + f_A1_edge_connector_nv_9_nn_9_co >= 0
 on_off_constraint_by_indicator_A1_nv_9_ac_9_co: - indicator_A1_ac_9
   + y_A1_edge_connector_nv_9_ac_9_co <= 0
 on_off_constraint_by_sum_actives_A1_nv_9_ac_9_co: - io_detector_A1
   + y_A1_edge_connector_nv_9_ac_9_co <= 0
 on_off_constraint_by_mixing_A1_nv_9_ac_9_co: - indicator_A1_ac_9
   - io_detector_A1 + y_A1_edge_connector_nv_9_ac_9_co >= -1
 edge_flow_ub_A1_nv_9_ac_9_ve: - 2 y_A1_edge_connector_nv_9_ac_9_co
   + f_A1_edge_connector_nv_9_ac_9_co <= 0
 edge_flow_lb_A1_nv_9_ac_9_ve: 2 y_A1_edge_connector_nv_9_ac_9_co
   + f_A1_edge_connector_nv_9_ac_9_co >= 0
 on_off_constraint_by_indicator_A1_pv_12_pp_12_co: - indicator_A1_pp_12
   + y_A1_edge_connector_pv_12_pp_12_co <= 0
 on_off_constraint_by_sum_actives_A1_pv_12_pp_12_co: - io_detector_A1
   + y_A1_edge_connector_pv_12_pp_12_co <= 0
 on_off_constraint_by_mixing_A1_pv_12_pp_12_co: - indicator_A1_pp_12
   - io_detector_A1 + y_A1_edge_connector_pv_12_pp_12_co >= -1
 edge_flow_ub_A1_pv_12_pp_12_ve: - 2 y_A1_edge_connector_pv_12_pp_12_co
   + f_A1_edge_connector_pv_12_pp_12_co <= 0
 edge_flow_lb_A1_pv_12_pp_12_ve: 2 y_A1_edge_connector_pv_12_pp_12_co
   + f_A1_edge_connector_pv_12_pp_12_co >= 0
 on_off_constraint_by_indicator_A1_pv_12_ac_12_co: - indicator_A1_ac_12
   + y_A1_edge_connector_pv_12_ac_12_co <= 0
 on_off_constraint_by_sum_actives_A1_pv_12_ac_12_co: - io_detector_A1
   + y_A1_edge_connector_pv_12_ac_12_co <= 0
 on_off_constraint_by_mixing_A1_pv_12_ac_12_co: - indicator_A1_ac_12
   - io_detector_A1 + y_A1_edge_connector_pv_12_ac_12_co >= -1
 edge_flow_ub_A1_pv_12_ac_12_ve: - 2 y_A1_edge_connector_pv_12_ac_12_co
   + f_A1_edge_connector_pv_12_ac_12_co <= 0
 edge_flow_lb_A1_pv_12_ac_12_ve: 2 y_A1_edge_connector_pv_12_ac_12_co
   + f_A1_edge_connector_pv_12_ac_12_co >= 0
 on_off_constraint_by_indicator_A1_nv_12_nn_12_co: - indicator_A1_nn_12
   + y_A1_edge_connector_nv_12_nn_12_co <= 0
 on_off_constraint_by_sum_actives_A1_nv_12_nn_12_co: - io_detector_A1
   + y_A1_edge_connector_nv_12_nn_12_co <= 0
 on_off_constraint_by_mixing_A1_nv_12_nn_12_co: - indicator_A1_nn_12
   - io_detector_A1 + y_A1_edge_connector_nv_12_nn_12_co >= -1
 edge_flow_ub_A1_nv_12_nn_12_ve: - 2 y_A1_edge_connector_nv_12_nn_12_co
   + f_A1_edge_connector_nv_12_nn_12_co <= 0
 edge_flow_lb_A1_nv_12_nn_12_ve: 2 y_A1_edge_connector_nv_12_nn_12_co
   + f_A1_edge_connector_nv_12_nn_12_co >= 0
 on_off_constraint_by_indicator_A1_nv_12_ac_12_co: - indicator_A1_ac_12
   + y_A1_edge_connector_nv_12_ac_12_co <= 0
 on_off_constraint_by_sum_actives_A1_nv_12_ac_12_co: - io_detector_A1
   + y_A1_edge_connector_nv_12_ac_12_co <= 0
 on_off_constraint_by_mixing_A1_nv_12_ac_12_co: - indicator_A1_ac_12
   - io_detector_A1 + y_A1_edge_connector_nv_12_ac_12_co >= -1
 edge_flow_ub_A1_nv_12_ac_12_ve: - 2 y_A1_edge_connector_nv_12_ac_12_co
   + f_A1_edge_connector_nv_12_ac_12_co <= 0
 edge_flow_lb_A1_nv_12_ac_12_ve: 2 y_A1_edge_connector_nv_12_ac_12_co
   + f_A1_edge_connector_nv_12_ac_12_co >= 0
 on_off_constraint_by_indicator_A1_pv_15_pp_15_co: - indicator_A1_pp_15
   + y_A1_edge_connector_pv_15_pp_15_co <= 0
 on_off_constraint_by_sum_actives_A1_pv_15_pp_15_co: - io_detector_A1
   + y_A1_edge_connector_pv_15_pp_15_co <= 0
 on_off_constraint_by_mixing_A1_pv_15_pp_15_co: - indicator_A1_pp_15
   - io_detector_A1 + y_A1_edge_connector_pv_15_pp_15_co >= -1
 edge_flow_ub_A1_pv_15_pp_15_ve: - 2 y_A1_edge_connector_pv_15_pp_15_co
   + f_A1_edge_connector_pv_15_pp_15_co <= 0
 edge_flow_lb_A1_pv_15_pp_15_ve: 2 y_A1_edge_connector_pv_15_pp_15_co
   + f_A1_edge_connector_pv_15_pp_15_co >= 0
 on_off_constraint_by_indicator_A1_pv_15_ac_15_co: - indicator_A1_ac_15
   + y_A1_edge_connector_pv_15_ac_15_co <= 0
 on_off_constraint_by_sum_actives_A1_pv_15_ac_15_co: - io_detector_A1
   + y_A1_edge_connector_pv_15_ac_15_co <= 0
 on_off_constraint_by_mixing_A1_pv_15_ac_15_co: - indicator_A1_ac_15
   - io_detector_A1 + y_A1_edge_connector_pv_15_ac_15_co >= -1
 edge_flow_ub_A1_pv_15_ac_15_ve: - 2 y_A1_edge_connector_pv_15_ac_15_co
   + f_A1_edge_connector_pv_15_ac_15_co <= 0
 edge_flow_lb_A1_pv_15_ac_15_ve: 2 y_A1_edge_connector_pv_15_ac_15_co
   + f_A1_edge_connector_pv_15_ac_15_co >= 0
 on_off_constraint_by_indicator_A1_nv_15_nn_15_co: - indicator_A1_nn_15
   + y_A1_edge_connector_nv_15_nn_15_co <= 0
 on_off_constraint_by_sum_actives_A1_nv_15_nn_15_co: - io_detector_A1
   + y_A1_edge_connector_nv_15_nn_15_co <= 0
 on_off_constraint_by_mixing_A1_nv_15_nn_15_co: - indicator_A1_nn_15
   - io_detector_A1 + y_A1_edge_connector_nv_15_nn_15_co >= -1
 edge_flow_ub_A1_nv_15_nn_15_ve: - 2 y_A1_edge_connector_nv_15_nn_15_co
   + f_A1_edge_connector_nv_15_nn_15_co <= 0
 edge_flow_lb_A1_nv_15_nn_15_ve: 2 y_A1_edge_connector_nv_15_nn_15_co
   + f_A1_edge_connector_nv_15_nn_15_co >= 0
 on_off_constraint_by_indicator_A1_nv_15_ac_15_co: - indicator_A1_ac_15
   + y_A1_edge_connector_nv_15_ac_15_co <= 0
 on_off_constraint_by_sum_actives_A1_nv_15_ac_15_co: - io_detector_A1
   + y_A1_edge_connector_nv_15_ac_15_co <= 0
 on_off_constraint_by_mixing_A1_nv_15_ac_15_co: - indicator_A1_ac_15
   - io_detector_A1 + y_A1_edge_connector_nv_15_ac_15_co >= -1
 edge_flow_ub_A1_nv_15_ac_15_ve: - 2 y_A1_edge_connector_nv_15_ac_15_co
   + f_A1_edge_connector_nv_15_ac_15_co <= 0
 edge_flow_lb_A1_nv_15_ac_15_ve: 2 y_A1_edge_connector_nv_15_ac_15_co
   + f_A1_edge_connector_nv_15_ac_15_co >= 0
 row_selection_on_off_rule1_A1_pp_3: - 2 indicator_A1_pp_3
   + c_mar_row_A1_pp_3_r[3] + c_mar_row_A1_pp_3_r[2] <= 0
 row_selection_on_off_rule2_A1_pp_3: - 2 io_detector_A1
   + c_mar_row_A1_pp_3_r[3] + c_mar_row_A1_pp_3_r[2] <= 0
 row_selection_on_off_rule3_A1_pp_3: - indicator_A1_pp_3 - io_detector_A1
   + c_mar_row_A1_pp_3_r[3] + c_mar_row_A1_pp_3_r[2] >= -1
 case_selection_on_off_rule1_A1_pp_3_3: - c_mar_row_A1_pp_3_r[3]
   + c_mar_row_A1_pp_3_3_case[0] <= 0
 case_selection_on_off_rule2_A1_pp_3_3: - c_mar_row_A1_pp_3_r[3]
   + c_mar_row_A1_pp_3_3_case[0] >= 0
 mar_constraint_A1_pp_3_3_left_edge: - t_A1_c_r[0,3]
   + c_mar_row_A1_pp_3_3_case[0] <= 0
 mar_constraint_A1_pp_3_3_real_metal: - t_A1_c_r[1,3]
   + c_mar_row_A1_pp_3_3_case[0] <= 0
 mar_constraint_A1_pp_3_3_right_edge: - t_eol_c_r[2,3] - t_A1_c_r[2,3]
   + c_mar_row_A1_pp_3_3_case[0] <= 0
 case_selection_on_off_rule1_A1_pp_3_2: - c_mar_row_A1_pp_3_r[2]
   + c_mar_row_A1_pp_3_2_case[0] <= 0
 case_selection_on_off_rule2_A1_pp_3_2: - c_mar_row_A1_pp_3_r[2]
   + c_mar_row_A1_pp_3_2_case[0] >= 0
 mar_constraint_A1_pp_3_2_left_edge: - t_A1_c_r[0,2]
   + c_mar_row_A1_pp_3_2_case[0] <= 0
 mar_constraint_A1_pp_3_2_real_metal: - t_A1_c_r[1,2]
   + c_mar_row_A1_pp_3_2_case[0] <= 0
 mar_constraint_A1_pp_3_2_right_edge: - t_eol_c_r[2,2] - t_A1_c_r[2,2]
   + c_mar_row_A1_pp_3_2_case[0] <= 0
 row_selection_on_off_rule1_A1_nn_3: - 2 indicator_A1_nn_3
   + c_mar_row_A1_nn_3_r[1] + c_mar_row_A1_nn_3_r[0] <= 0
 row_selection_on_off_rule2_A1_nn_3: - 2 io_detector_A1
   + c_mar_row_A1_nn_3_r[1] + c_mar_row_A1_nn_3_r[0] <= 0
 row_selection_on_off_rule3_A1_nn_3: - indicator_A1_nn_3 - io_detector_A1
   + c_mar_row_A1_nn_3_r[1] + c_mar_row_A1_nn_3_r[0] >= -1
 case_selection_on_off_rule1_A1_nn_3_1: - c_mar_row_A1_nn_3_r[1]
   + c_mar_row_A1_nn_3_1_case[0] <= 0
 case_selection_on_off_rule2_A1_nn_3_1: - c_mar_row_A1_nn_3_r[1]
   + c_mar_row_A1_nn_3_1_case[0] >= 0
 mar_constraint_A1_nn_3_1_left_edge: - t_A1_c_r[0,1]
   + c_mar_row_A1_nn_3_1_case[0] <= 0
 mar_constraint_A1_nn_3_1_real_metal: - t_A1_c_r[1,1]
   + c_mar_row_A1_nn_3_1_case[0] <= 0
 mar_constraint_A1_nn_3_1_right_edge: - t_eol_c_r[2,1] - t_A1_c_r[2,1]
   + c_mar_row_A1_nn_3_1_case[0] <= 0
 case_selection_on_off_rule1_A1_nn_3_0: - c_mar_row_A1_nn_3_r[0]
   + c_mar_row_A1_nn_3_0_case[0] <= 0
 case_selection_on_off_rule2_A1_nn_3_0: - c_mar_row_A1_nn_3_r[0]
   + c_mar_row_A1_nn_3_0_case[0] >= 0
 mar_constraint_A1_nn_3_0_left_edge: - t_A1_c_r[0,0]
   + c_mar_row_A1_nn_3_0_case[0] <= 0
 mar_constraint_A1_nn_3_0_real_metal: - t_A1_c_r[1,0]
   + c_mar_row_A1_nn_3_0_case[0] <= 0
 mar_constraint_A1_nn_3_0_right_edge: - t_eol_c_r[2,0] - t_A1_c_r[2,0]
   + c_mar_row_A1_nn_3_0_case[0] <= 0
 row_selection_on_off_rule1_A1_ac_3: - 4 indicator_A1_ac_3
   + c_mar_row_A1_ac_3_r[3] + c_mar_row_A1_ac_3_r[2]
   + c_mar_row_A1_ac_3_r[1] + c_mar_row_A1_ac_3_r[0] <= 0
 row_selection_on_off_rule2_A1_ac_3: - 4 io_detector_A1
   + c_mar_row_A1_ac_3_r[3] + c_mar_row_A1_ac_3_r[2]
   + c_mar_row_A1_ac_3_r[1] + c_mar_row_A1_ac_3_r[0] <= 0
 row_selection_on_off_rule3_A1_ac_3: - indicator_A1_ac_3 - io_detector_A1
   + c_mar_row_A1_ac_3_r[3] + c_mar_row_A1_ac_3_r[2]
   + c_mar_row_A1_ac_3_r[1] + c_mar_row_A1_ac_3_r[0] >= -1
 case_selection_on_off_rule1_A1_ac_3_3: - c_mar_row_A1_ac_3_r[3]
   + c_mar_row_A1_ac_3_3_case[0] <= 0
 case_selection_on_off_rule2_A1_ac_3_3: - c_mar_row_A1_ac_3_r[3]
   + c_mar_row_A1_ac_3_3_case[0] >= 0
 mar_constraint_A1_ac_3_3_left_edge: - t_A1_c_r[0,3]
   + c_mar_row_A1_ac_3_3_case[0] <= 0
 mar_constraint_A1_ac_3_3_real_metal: - t_A1_c_r[1,3]
   + c_mar_row_A1_ac_3_3_case[0] <= 0
 mar_constraint_A1_ac_3_3_right_edge: - t_eol_c_r[2,3] - t_A1_c_r[2,3]
   + c_mar_row_A1_ac_3_3_case[0] <= 0
 case_selection_on_off_rule1_A1_ac_3_2: - c_mar_row_A1_ac_3_r[2]
   + c_mar_row_A1_ac_3_2_case[0] <= 0
 case_selection_on_off_rule2_A1_ac_3_2: - c_mar_row_A1_ac_3_r[2]
   + c_mar_row_A1_ac_3_2_case[0] >= 0
 mar_constraint_A1_ac_3_2_left_edge: - t_A1_c_r[0,2]
   + c_mar_row_A1_ac_3_2_case[0] <= 0
 mar_constraint_A1_ac_3_2_real_metal: - t_A1_c_r[1,2]
   + c_mar_row_A1_ac_3_2_case[0] <= 0
 mar_constraint_A1_ac_3_2_right_edge: - t_eol_c_r[2,2] - t_A1_c_r[2,2]
   + c_mar_row_A1_ac_3_2_case[0] <= 0
 case_selection_on_off_rule1_A1_ac_3_1: - c_mar_row_A1_ac_3_r[1]
   + c_mar_row_A1_ac_3_1_case[0] <= 0
 case_selection_on_off_rule2_A1_ac_3_1: - c_mar_row_A1_ac_3_r[1]
   + c_mar_row_A1_ac_3_1_case[0] >= 0
 mar_constraint_A1_ac_3_1_left_edge: - t_A1_c_r[0,1]
   + c_mar_row_A1_ac_3_1_case[0] <= 0
 mar_constraint_A1_ac_3_1_real_metal: - t_A1_c_r[1,1]
   + c_mar_row_A1_ac_3_1_case[0] <= 0
 mar_constraint_A1_ac_3_1_right_edge: - t_eol_c_r[2,1] - t_A1_c_r[2,1]
   + c_mar_row_A1_ac_3_1_case[0] <= 0
 case_selection_on_off_rule1_A1_ac_3_0: - c_mar_row_A1_ac_3_r[0]
   + c_mar_row_A1_ac_3_0_case[0] <= 0
 case_selection_on_off_rule2_A1_ac_3_0: - c_mar_row_A1_ac_3_r[0]
   + c_mar_row_A1_ac_3_0_case[0] >= 0
 mar_constraint_A1_ac_3_0_left_edge: - t_A1_c_r[0,0]
   + c_mar_row_A1_ac_3_0_case[0] <= 0
 mar_constraint_A1_ac_3_0_real_metal: - t_A1_c_r[1,0]
   + c_mar_row_A1_ac_3_0_case[0] <= 0
 mar_constraint_A1_ac_3_0_right_edge: - t_eol_c_r[2,0] - t_A1_c_r[2,0]
   + c_mar_row_A1_ac_3_0_case[0] <= 0
 row_selection_on_off_rule1_A1_pp_6: - 2 indicator_A1_pp_6
   + c_mar_row_A1_pp_6_r[3] + c_mar_row_A1_pp_6_r[2] <= 0
 row_selection_on_off_rule2_A1_pp_6: - 2 io_detector_A1
   + c_mar_row_A1_pp_6_r[3] + c_mar_row_A1_pp_6_r[2] <= 0
 row_selection_on_off_rule3_A1_pp_6: - indicator_A1_pp_6 - io_detector_A1
   + c_mar_row_A1_pp_6_r[3] + c_mar_row_A1_pp_6_r[2] >= -1
 case_selection_on_off_rule1_A1_pp_6_3: - c_mar_row_A1_pp_6_r[3]
   + c_mar_row_A1_pp_6_3_case[0] + c_mar_row_A1_pp_6_3_case[1] <= 0
 case_selection_on_off_rule2_A1_pp_6_3: - c_mar_row_A1_pp_6_r[3]
   + c_mar_row_A1_pp_6_3_case[0] + c_mar_row_A1_pp_6_3_case[1] >= 0
 mar_constraint_A1_pp_6_3_left_edge: - t_A1_c_r[0,3]
   + c_mar_row_A1_pp_6_3_case[0] <= 0
 mar_constraint_A1_pp_6_3_real_metal: - t_A1_c_r[1,3]
   + c_mar_row_A1_pp_6_3_case[0] <= 0
 mar_constraint_A1_pp_6_3_right_edge: - t_eol_c_r[2,3] - t_A1_c_r[2,3]
   + c_mar_row_A1_pp_6_3_case[0] <= 0
 mar_constraint_A1_pp_6_3_left_edge: - t_eol_c_r[0,3] - t_A1_c_r[0,3]
   + c_mar_row_A1_pp_6_3_case[1] <= 0
 mar_constraint_A1_pp_6_3_real_metal: - t_A1_c_r[1,3]
   + c_mar_row_A1_pp_6_3_case[1] <= 0
 mar_constraint_A1_pp_6_3_real_metal: - t_A1_c_r[2,3]
   + c_mar_row_A1_pp_6_3_case[1] <= 0
 mar_constraint_A1_pp_6_3_right_edge: - t_eol_c_r[3,3] - t_A1_c_r[3,3]
   + c_mar_row_A1_pp_6_3_case[1] <= 0
 case_selection_on_off_rule1_A1_pp_6_2: - c_mar_row_A1_pp_6_r[2]
   + c_mar_row_A1_pp_6_2_case[0] + c_mar_row_A1_pp_6_2_case[1] <= 0
 case_selection_on_off_rule2_A1_pp_6_2: - c_mar_row_A1_pp_6_r[2]
   + c_mar_row_A1_pp_6_2_case[0] + c_mar_row_A1_pp_6_2_case[1] >= 0
 mar_constraint_A1_pp_6_2_left_edge: - t_A1_c_r[0,2]
   + c_mar_row_A1_pp_6_2_case[0] <= 0
 mar_constraint_A1_pp_6_2_real_metal: - t_A1_c_r[1,2]
   + c_mar_row_A1_pp_6_2_case[0] <= 0
 mar_constraint_A1_pp_6_2_right_edge: - t_eol_c_r[2,2] - t_A1_c_r[2,2]
   + c_mar_row_A1_pp_6_2_case[0] <= 0
 mar_constraint_A1_pp_6_2_left_edge: - t_eol_c_r[0,2] - t_A1_c_r[0,2]
   + c_mar_row_A1_pp_6_2_case[1] <= 0
 mar_constraint_A1_pp_6_2_real_metal: - t_A1_c_r[1,2]
   + c_mar_row_A1_pp_6_2_case[1] <= 0
 mar_constraint_A1_pp_6_2_real_metal: - t_A1_c_r[2,2]
   + c_mar_row_A1_pp_6_2_case[1] <= 0
 mar_constraint_A1_pp_6_2_right_edge: - t_eol_c_r[3,2] - t_A1_c_r[3,2]
   + c_mar_row_A1_pp_6_2_case[1] <= 0
 row_selection_on_off_rule1_A1_nn_6: - 2 indicator_A1_nn_6
   + c_mar_row_A1_nn_6_r[1] + c_mar_row_A1_nn_6_r[0] <= 0
 row_selection_on_off_rule2_A1_nn_6: - 2 io_detector_A1
   + c_mar_row_A1_nn_6_r[1] + c_mar_row_A1_nn_6_r[0] <= 0
 row_selection_on_off_rule3_A1_nn_6: - indicator_A1_nn_6 - io_detector_A1
   + c_mar_row_A1_nn_6_r[1] + c_mar_row_A1_nn_6_r[0] >= -1
 case_selection_on_off_rule1_A1_nn_6_1: - c_mar_row_A1_nn_6_r[1]
   + c_mar_row_A1_nn_6_1_case[0] + c_mar_row_A1_nn_6_1_case[1] <= 0
 case_selection_on_off_rule2_A1_nn_6_1: - c_mar_row_A1_nn_6_r[1]
   + c_mar_row_A1_nn_6_1_case[0] + c_mar_row_A1_nn_6_1_case[1] >= 0
 mar_constraint_A1_nn_6_1_left_edge: - t_A1_c_r[0,1]
   + c_mar_row_A1_nn_6_1_case[0] <= 0
 mar_constraint_A1_nn_6_1_real_metal: - t_A1_c_r[1,1]
   + c_mar_row_A1_nn_6_1_case[0] <= 0
 mar_constraint_A1_nn_6_1_right_edge: - t_eol_c_r[2,1] - t_A1_c_r[2,1]
   + c_mar_row_A1_nn_6_1_case[0] <= 0
 mar_constraint_A1_nn_6_1_left_edge: - t_eol_c_r[0,1] - t_A1_c_r[0,1]
   + c_mar_row_A1_nn_6_1_case[1] <= 0
 mar_constraint_A1_nn_6_1_real_metal: - t_A1_c_r[1,1]
   + c_mar_row_A1_nn_6_1_case[1] <= 0
 mar_constraint_A1_nn_6_1_real_metal: - t_A1_c_r[2,1]
   + c_mar_row_A1_nn_6_1_case[1] <= 0
 mar_constraint_A1_nn_6_1_right_edge: - t_eol_c_r[3,1] - t_A1_c_r[3,1]
   + c_mar_row_A1_nn_6_1_case[1] <= 0
 case_selection_on_off_rule1_A1_nn_6_0: - c_mar_row_A1_nn_6_r[0]
   + c_mar_row_A1_nn_6_0_case[0] + c_mar_row_A1_nn_6_0_case[1] <= 0
 case_selection_on_off_rule2_A1_nn_6_0: - c_mar_row_A1_nn_6_r[0]
   + c_mar_row_A1_nn_6_0_case[0] + c_mar_row_A1_nn_6_0_case[1] >= 0
 mar_constraint_A1_nn_6_0_left_edge: - t_A1_c_r[0,0]
   + c_mar_row_A1_nn_6_0_case[0] <= 0
 mar_constraint_A1_nn_6_0_real_metal: - t_A1_c_r[1,0]
   + c_mar_row_A1_nn_6_0_case[0] <= 0
 mar_constraint_A1_nn_6_0_right_edge: - t_eol_c_r[2,0] - t_A1_c_r[2,0]
   + c_mar_row_A1_nn_6_0_case[0] <= 0
 mar_constraint_A1_nn_6_0_left_edge: - t_eol_c_r[0,0] - t_A1_c_r[0,0]
   + c_mar_row_A1_nn_6_0_case[1] <= 0
 mar_constraint_A1_nn_6_0_real_metal: - t_A1_c_r[1,0]
   + c_mar_row_A1_nn_6_0_case[1] <= 0
 mar_constraint_A1_nn_6_0_real_metal: - t_A1_c_r[2,0]
   + c_mar_row_A1_nn_6_0_case[1] <= 0
 mar_constraint_A1_nn_6_0_right_edge: - t_eol_c_r[3,0] - t_A1_c_r[3,0]
   + c_mar_row_A1_nn_6_0_case[1] <= 0
 row_selection_on_off_rule1_A1_ac_6: - 4 indicator_A1_ac_6
   + c_mar_row_A1_ac_6_r[3] + c_mar_row_A1_ac_6_r[2]
   + c_mar_row_A1_ac_6_r[1] + c_mar_row_A1_ac_6_r[0] <= 0
 row_selection_on_off_rule2_A1_ac_6: - 4 io_detector_A1
   + c_mar_row_A1_ac_6_r[3] + c_mar_row_A1_ac_6_r[2]
   + c_mar_row_A1_ac_6_r[1] + c_mar_row_A1_ac_6_r[0] <= 0
 row_selection_on_off_rule3_A1_ac_6: - indicator_A1_ac_6 - io_detector_A1
   + c_mar_row_A1_ac_6_r[3] + c_mar_row_A1_ac_6_r[2]
   + c_mar_row_A1_ac_6_r[1] + c_mar_row_A1_ac_6_r[0] >= -1
 case_selection_on_off_rule1_A1_ac_6_3: - c_mar_row_A1_ac_6_r[3]
   + c_mar_row_A1_ac_6_3_case[0] + c_mar_row_A1_ac_6_3_case[1] <= 0
 case_selection_on_off_rule2_A1_ac_6_3: - c_mar_row_A1_ac_6_r[3]
   + c_mar_row_A1_ac_6_3_case[0] + c_mar_row_A1_ac_6_3_case[1] >= 0
 mar_constraint_A1_ac_6_3_left_edge: - t_A1_c_r[0,3]
   + c_mar_row_A1_ac_6_3_case[0] <= 0
 mar_constraint_A1_ac_6_3_real_metal: - t_A1_c_r[1,3]
   + c_mar_row_A1_ac_6_3_case[0] <= 0
 mar_constraint_A1_ac_6_3_right_edge: - t_eol_c_r[2,3] - t_A1_c_r[2,3]
   + c_mar_row_A1_ac_6_3_case[0] <= 0
 mar_constraint_A1_ac_6_3_left_edge: - t_eol_c_r[0,3] - t_A1_c_r[0,3]
   + c_mar_row_A1_ac_6_3_case[1] <= 0
 mar_constraint_A1_ac_6_3_real_metal: - t_A1_c_r[1,3]
   + c_mar_row_A1_ac_6_3_case[1] <= 0
 mar_constraint_A1_ac_6_3_real_metal: - t_A1_c_r[2,3]
   + c_mar_row_A1_ac_6_3_case[1] <= 0
 mar_constraint_A1_ac_6_3_right_edge: - t_eol_c_r[3,3] - t_A1_c_r[3,3]
   + c_mar_row_A1_ac_6_3_case[1] <= 0
 case_selection_on_off_rule1_A1_ac_6_2: - c_mar_row_A1_ac_6_r[2]
   + c_mar_row_A1_ac_6_2_case[0] + c_mar_row_A1_ac_6_2_case[1] <= 0
 case_selection_on_off_rule2_A1_ac_6_2: - c_mar_row_A1_ac_6_r[2]
   + c_mar_row_A1_ac_6_2_case[0] + c_mar_row_A1_ac_6_2_case[1] >= 0
 mar_constraint_A1_ac_6_2_left_edge: - t_A1_c_r[0,2]
   + c_mar_row_A1_ac_6_2_case[0] <= 0
 mar_constraint_A1_ac_6_2_real_metal: - t_A1_c_r[1,2]
   + c_mar_row_A1_ac_6_2_case[0] <= 0
 mar_constraint_A1_ac_6_2_right_edge: - t_eol_c_r[2,2] - t_A1_c_r[2,2]
   + c_mar_row_A1_ac_6_2_case[0] <= 0
 mar_constraint_A1_ac_6_2_left_edge: - t_eol_c_r[0,2] - t_A1_c_r[0,2]
   + c_mar_row_A1_ac_6_2_case[1] <= 0
 mar_constraint_A1_ac_6_2_real_metal: - t_A1_c_r[1,2]
   + c_mar_row_A1_ac_6_2_case[1] <= 0
 mar_constraint_A1_ac_6_2_real_metal: - t_A1_c_r[2,2]
   + c_mar_row_A1_ac_6_2_case[1] <= 0
 mar_constraint_A1_ac_6_2_right_edge: - t_eol_c_r[3,2] - t_A1_c_r[3,2]
   + c_mar_row_A1_ac_6_2_case[1] <= 0
 case_selection_on_off_rule1_A1_ac_6_1: - c_mar_row_A1_ac_6_r[1]
   + c_mar_row_A1_ac_6_1_case[0] + c_mar_row_A1_ac_6_1_case[1] <= 0
 case_selection_on_off_rule2_A1_ac_6_1: - c_mar_row_A1_ac_6_r[1]
   + c_mar_row_A1_ac_6_1_case[0] + c_mar_row_A1_ac_6_1_case[1] >= 0
 mar_constraint_A1_ac_6_1_left_edge: - t_A1_c_r[0,1]
   + c_mar_row_A1_ac_6_1_case[0] <= 0
 mar_constraint_A1_ac_6_1_real_metal: - t_A1_c_r[1,1]
   + c_mar_row_A1_ac_6_1_case[0] <= 0
 mar_constraint_A1_ac_6_1_right_edge: - t_eol_c_r[2,1] - t_A1_c_r[2,1]
   + c_mar_row_A1_ac_6_1_case[0] <= 0
 mar_constraint_A1_ac_6_1_left_edge: - t_eol_c_r[0,1] - t_A1_c_r[0,1]
   + c_mar_row_A1_ac_6_1_case[1] <= 0
 mar_constraint_A1_ac_6_1_real_metal: - t_A1_c_r[1,1]
   + c_mar_row_A1_ac_6_1_case[1] <= 0
 mar_constraint_A1_ac_6_1_real_metal: - t_A1_c_r[2,1]
   + c_mar_row_A1_ac_6_1_case[1] <= 0
 mar_constraint_A1_ac_6_1_right_edge: - t_eol_c_r[3,1] - t_A1_c_r[3,1]
   + c_mar_row_A1_ac_6_1_case[1] <= 0
 case_selection_on_off_rule1_A1_ac_6_0: - c_mar_row_A1_ac_6_r[0]
   + c_mar_row_A1_ac_6_0_case[0] + c_mar_row_A1_ac_6_0_case[1] <= 0
 case_selection_on_off_rule2_A1_ac_6_0: - c_mar_row_A1_ac_6_r[0]
   + c_mar_row_A1_ac_6_0_case[0] + c_mar_row_A1_ac_6_0_case[1] >= 0
 mar_constraint_A1_ac_6_0_left_edge: - t_A1_c_r[0,0]
   + c_mar_row_A1_ac_6_0_case[0] <= 0
 mar_constraint_A1_ac_6_0_real_metal: - t_A1_c_r[1,0]
   + c_mar_row_A1_ac_6_0_case[0] <= 0
 mar_constraint_A1_ac_6_0_right_edge: - t_eol_c_r[2,0] - t_A1_c_r[2,0]
   + c_mar_row_A1_ac_6_0_case[0] <= 0
 mar_constraint_A1_ac_6_0_left_edge: - t_eol_c_r[0,0] - t_A1_c_r[0,0]
   + c_mar_row_A1_ac_6_0_case[1] <= 0
 mar_constraint_A1_ac_6_0_real_metal: - t_A1_c_r[1,0]
   + c_mar_row_A1_ac_6_0_case[1] <= 0
 mar_constraint_A1_ac_6_0_real_metal: - t_A1_c_r[2,0]
   + c_mar_row_A1_ac_6_0_case[1] <= 0
 mar_constraint_A1_ac_6_0_right_edge: - t_eol_c_r[3,0] - t_A1_c_r[3,0]
   + c_mar_row_A1_ac_6_0_case[1] <= 0
 row_selection_on_off_rule1_A1_pp_9: - 2 indicator_A1_pp_9
   + c_mar_row_A1_pp_9_r[3] + c_mar_row_A1_pp_9_r[2] <= 0
 row_selection_on_off_rule2_A1_pp_9: - 2 io_detector_A1
   + c_mar_row_A1_pp_9_r[3] + c_mar_row_A1_pp_9_r[2] <= 0
 row_selection_on_off_rule3_A1_pp_9: - indicator_A1_pp_9 - io_detector_A1
   + c_mar_row_A1_pp_9_r[3] + c_mar_row_A1_pp_9_r[2] >= -1
 case_selection_on_off_rule1_A1_pp_9_3: - c_mar_row_A1_pp_9_r[3]
   + c_mar_row_A1_pp_9_3_case[0] + c_mar_row_A1_pp_9_3_case[1] <= 0
 case_selection_on_off_rule2_A1_pp_9_3: - c_mar_row_A1_pp_9_r[3]
   + c_mar_row_A1_pp_9_3_case[0] + c_mar_row_A1_pp_9_3_case[1] >= 0
 mar_constraint_A1_pp_9_3_left_edge: - t_eol_c_r[0,3] - t_A1_c_r[0,3]
   + c_mar_row_A1_pp_9_3_case[0] <= 0
 mar_constraint_A1_pp_9_3_real_metal: - t_A1_c_r[1,3]
   + c_mar_row_A1_pp_9_3_case[0] <= 0
 mar_constraint_A1_pp_9_3_real_metal: - t_A1_c_r[2,3]
   + c_mar_row_A1_pp_9_3_case[0] <= 0
 mar_constraint_A1_pp_9_3_right_edge: - t_eol_c_r[3,3] - t_A1_c_r[3,3]
   + c_mar_row_A1_pp_9_3_case[0] <= 0
 mar_constraint_A1_pp_9_3_left_edge: - t_eol_c_r[1,3] - t_A1_c_r[1,3]
   + c_mar_row_A1_pp_9_3_case[1] <= 0
 mar_constraint_A1_pp_9_3_real_metal: - t_A1_c_r[2,3]
   + c_mar_row_A1_pp_9_3_case[1] <= 0
 mar_constraint_A1_pp_9_3_real_metal: - t_A1_c_r[3,3]
   + c_mar_row_A1_pp_9_3_case[1] <= 0
 mar_constraint_A1_pp_9_3_right_edge: - t_eol_c_r[4,3] - t_A1_c_r[4,3]
   + c_mar_row_A1_pp_9_3_case[1] <= 0
 case_selection_on_off_rule1_A1_pp_9_2: - c_mar_row_A1_pp_9_r[2]
   + c_mar_row_A1_pp_9_2_case[0] + c_mar_row_A1_pp_9_2_case[1] <= 0
 case_selection_on_off_rule2_A1_pp_9_2: - c_mar_row_A1_pp_9_r[2]
   + c_mar_row_A1_pp_9_2_case[0] + c_mar_row_A1_pp_9_2_case[1] >= 0
 mar_constraint_A1_pp_9_2_left_edge: - t_eol_c_r[0,2] - t_A1_c_r[0,2]
   + c_mar_row_A1_pp_9_2_case[0] <= 0
 mar_constraint_A1_pp_9_2_real_metal: - t_A1_c_r[1,2]
   + c_mar_row_A1_pp_9_2_case[0] <= 0
 mar_constraint_A1_pp_9_2_real_metal: - t_A1_c_r[2,2]
   + c_mar_row_A1_pp_9_2_case[0] <= 0
 mar_constraint_A1_pp_9_2_right_edge: - t_eol_c_r[3,2] - t_A1_c_r[3,2]
   + c_mar_row_A1_pp_9_2_case[0] <= 0
 mar_constraint_A1_pp_9_2_left_edge: - t_eol_c_r[1,2] - t_A1_c_r[1,2]
   + c_mar_row_A1_pp_9_2_case[1] <= 0
 mar_constraint_A1_pp_9_2_real_metal: - t_A1_c_r[2,2]
   + c_mar_row_A1_pp_9_2_case[1] <= 0
 mar_constraint_A1_pp_9_2_real_metal: - t_A1_c_r[3,2]
   + c_mar_row_A1_pp_9_2_case[1] <= 0
 mar_constraint_A1_pp_9_2_right_edge: - t_eol_c_r[4,2] - t_A1_c_r[4,2]
   + c_mar_row_A1_pp_9_2_case[1] <= 0
 row_selection_on_off_rule1_A1_nn_9: - 2 indicator_A1_nn_9
   + c_mar_row_A1_nn_9_r[1] + c_mar_row_A1_nn_9_r[0] <= 0
 row_selection_on_off_rule2_A1_nn_9: - 2 io_detector_A1
   + c_mar_row_A1_nn_9_r[1] + c_mar_row_A1_nn_9_r[0] <= 0
 row_selection_on_off_rule3_A1_nn_9: - indicator_A1_nn_9 - io_detector_A1
   + c_mar_row_A1_nn_9_r[1] + c_mar_row_A1_nn_9_r[0] >= -1
 case_selection_on_off_rule1_A1_nn_9_1: - c_mar_row_A1_nn_9_r[1]
   + c_mar_row_A1_nn_9_1_case[0] + c_mar_row_A1_nn_9_1_case[1] <= 0
 case_selection_on_off_rule2_A1_nn_9_1: - c_mar_row_A1_nn_9_r[1]
   + c_mar_row_A1_nn_9_1_case[0] + c_mar_row_A1_nn_9_1_case[1] >= 0
 mar_constraint_A1_nn_9_1_left_edge: - t_eol_c_r[0,1] - t_A1_c_r[0,1]
   + c_mar_row_A1_nn_9_1_case[0] <= 0
 mar_constraint_A1_nn_9_1_real_metal: - t_A1_c_r[1,1]
   + c_mar_row_A1_nn_9_1_case[0] <= 0
 mar_constraint_A1_nn_9_1_real_metal: - t_A1_c_r[2,1]
   + c_mar_row_A1_nn_9_1_case[0] <= 0
 mar_constraint_A1_nn_9_1_right_edge: - t_eol_c_r[3,1] - t_A1_c_r[3,1]
   + c_mar_row_A1_nn_9_1_case[0] <= 0
 mar_constraint_A1_nn_9_1_left_edge: - t_eol_c_r[1,1] - t_A1_c_r[1,1]
   + c_mar_row_A1_nn_9_1_case[1] <= 0
 mar_constraint_A1_nn_9_1_real_metal: - t_A1_c_r[2,1]
   + c_mar_row_A1_nn_9_1_case[1] <= 0
 mar_constraint_A1_nn_9_1_real_metal: - t_A1_c_r[3,1]
   + c_mar_row_A1_nn_9_1_case[1] <= 0
 mar_constraint_A1_nn_9_1_right_edge: - t_eol_c_r[4,1] - t_A1_c_r[4,1]
   + c_mar_row_A1_nn_9_1_case[1] <= 0
 case_selection_on_off_rule1_A1_nn_9_0: - c_mar_row_A1_nn_9_r[0]
   + c_mar_row_A1_nn_9_0_case[0] + c_mar_row_A1_nn_9_0_case[1] <= 0
 case_selection_on_off_rule2_A1_nn_9_0: - c_mar_row_A1_nn_9_r[0]
   + c_mar_row_A1_nn_9_0_case[0] + c_mar_row_A1_nn_9_0_case[1] >= 0
 mar_constraint_A1_nn_9_0_left_edge: - t_eol_c_r[0,0] - t_A1_c_r[0,0]
   + c_mar_row_A1_nn_9_0_case[0] <= 0
 mar_constraint_A1_nn_9_0_real_metal: - t_A1_c_r[1,0]
   + c_mar_row_A1_nn_9_0_case[0] <= 0
 mar_constraint_A1_nn_9_0_real_metal: - t_A1_c_r[2,0]
   + c_mar_row_A1_nn_9_0_case[0] <= 0
 mar_constraint_A1_nn_9_0_right_edge: - t_eol_c_r[3,0] - t_A1_c_r[3,0]
   + c_mar_row_A1_nn_9_0_case[0] <= 0
 mar_constraint_A1_nn_9_0_left_edge: - t_eol_c_r[1,0] - t_A1_c_r[1,0]
   + c_mar_row_A1_nn_9_0_case[1] <= 0
 mar_constraint_A1_nn_9_0_real_metal: - t_A1_c_r[2,0]
   + c_mar_row_A1_nn_9_0_case[1] <= 0
 mar_constraint_A1_nn_9_0_real_metal: - t_A1_c_r[3,0]
   + c_mar_row_A1_nn_9_0_case[1] <= 0
 mar_constraint_A1_nn_9_0_right_edge: - t_eol_c_r[4,0] - t_A1_c_r[4,0]
   + c_mar_row_A1_nn_9_0_case[1] <= 0
 row_selection_on_off_rule1_A1_ac_9: - 4 indicator_A1_ac_9
   + c_mar_row_A1_ac_9_r[3] + c_mar_row_A1_ac_9_r[2]
   + c_mar_row_A1_ac_9_r[1] + c_mar_row_A1_ac_9_r[0] <= 0
 row_selection_on_off_rule2_A1_ac_9: - 4 io_detector_A1
   + c_mar_row_A1_ac_9_r[3] + c_mar_row_A1_ac_9_r[2]
   + c_mar_row_A1_ac_9_r[1] + c_mar_row_A1_ac_9_r[0] <= 0
 row_selection_on_off_rule3_A1_ac_9: - indicator_A1_ac_9 - io_detector_A1
   + c_mar_row_A1_ac_9_r[3] + c_mar_row_A1_ac_9_r[2]
   + c_mar_row_A1_ac_9_r[1] + c_mar_row_A1_ac_9_r[0] >= -1
 case_selection_on_off_rule1_A1_ac_9_3: - c_mar_row_A1_ac_9_r[3]
   + c_mar_row_A1_ac_9_3_case[0] + c_mar_row_A1_ac_9_3_case[1] <= 0
 case_selection_on_off_rule2_A1_ac_9_3: - c_mar_row_A1_ac_9_r[3]
   + c_mar_row_A1_ac_9_3_case[0] + c_mar_row_A1_ac_9_3_case[1] >= 0
 mar_constraint_A1_ac_9_3_left_edge: - t_eol_c_r[0,3] - t_A1_c_r[0,3]
   + c_mar_row_A1_ac_9_3_case[0] <= 0
 mar_constraint_A1_ac_9_3_real_metal: - t_A1_c_r[1,3]
   + c_mar_row_A1_ac_9_3_case[0] <= 0
 mar_constraint_A1_ac_9_3_real_metal: - t_A1_c_r[2,3]
   + c_mar_row_A1_ac_9_3_case[0] <= 0
 mar_constraint_A1_ac_9_3_right_edge: - t_eol_c_r[3,3] - t_A1_c_r[3,3]
   + c_mar_row_A1_ac_9_3_case[0] <= 0
 mar_constraint_A1_ac_9_3_left_edge: - t_eol_c_r[1,3] - t_A1_c_r[1,3]
   + c_mar_row_A1_ac_9_3_case[1] <= 0
 mar_constraint_A1_ac_9_3_real_metal: - t_A1_c_r[2,3]
   + c_mar_row_A1_ac_9_3_case[1] <= 0
 mar_constraint_A1_ac_9_3_real_metal: - t_A1_c_r[3,3]
   + c_mar_row_A1_ac_9_3_case[1] <= 0
 mar_constraint_A1_ac_9_3_right_edge: - t_eol_c_r[4,3] - t_A1_c_r[4,3]
   + c_mar_row_A1_ac_9_3_case[1] <= 0
 case_selection_on_off_rule1_A1_ac_9_2: - c_mar_row_A1_ac_9_r[2]
   + c_mar_row_A1_ac_9_2_case[0] + c_mar_row_A1_ac_9_2_case[1] <= 0
 case_selection_on_off_rule2_A1_ac_9_2: - c_mar_row_A1_ac_9_r[2]
   + c_mar_row_A1_ac_9_2_case[0] + c_mar_row_A1_ac_9_2_case[1] >= 0
 mar_constraint_A1_ac_9_2_left_edge: - t_eol_c_r[0,2] - t_A1_c_r[0,2]
   + c_mar_row_A1_ac_9_2_case[0] <= 0
 mar_constraint_A1_ac_9_2_real_metal: - t_A1_c_r[1,2]
   + c_mar_row_A1_ac_9_2_case[0] <= 0
 mar_constraint_A1_ac_9_2_real_metal: - t_A1_c_r[2,2]
   + c_mar_row_A1_ac_9_2_case[0] <= 0
 mar_constraint_A1_ac_9_2_right_edge: - t_eol_c_r[3,2] - t_A1_c_r[3,2]
   + c_mar_row_A1_ac_9_2_case[0] <= 0
 mar_constraint_A1_ac_9_2_left_edge: - t_eol_c_r[1,2] - t_A1_c_r[1,2]
   + c_mar_row_A1_ac_9_2_case[1] <= 0
 mar_constraint_A1_ac_9_2_real_metal: - t_A1_c_r[2,2]
   + c_mar_row_A1_ac_9_2_case[1] <= 0
 mar_constraint_A1_ac_9_2_real_metal: - t_A1_c_r[3,2]
   + c_mar_row_A1_ac_9_2_case[1] <= 0
 mar_constraint_A1_ac_9_2_right_edge: - t_eol_c_r[4,2] - t_A1_c_r[4,2]
   + c_mar_row_A1_ac_9_2_case[1] <= 0
 case_selection_on_off_rule1_A1_ac_9_1: - c_mar_row_A1_ac_9_r[1]
   + c_mar_row_A1_ac_9_1_case[0] + c_mar_row_A1_ac_9_1_case[1] <= 0
 case_selection_on_off_rule2_A1_ac_9_1: - c_mar_row_A1_ac_9_r[1]
   + c_mar_row_A1_ac_9_1_case[0] + c_mar_row_A1_ac_9_1_case[1] >= 0
 mar_constraint_A1_ac_9_1_left_edge: - t_eol_c_r[0,1] - t_A1_c_r[0,1]
   + c_mar_row_A1_ac_9_1_case[0] <= 0
 mar_constraint_A1_ac_9_1_real_metal: - t_A1_c_r[1,1]
   + c_mar_row_A1_ac_9_1_case[0] <= 0
 mar_constraint_A1_ac_9_1_real_metal: - t_A1_c_r[2,1]
   + c_mar_row_A1_ac_9_1_case[0] <= 0
 mar_constraint_A1_ac_9_1_right_edge: - t_eol_c_r[3,1] - t_A1_c_r[3,1]
   + c_mar_row_A1_ac_9_1_case[0] <= 0
 mar_constraint_A1_ac_9_1_left_edge: - t_eol_c_r[1,1] - t_A1_c_r[1,1]
   + c_mar_row_A1_ac_9_1_case[1] <= 0
 mar_constraint_A1_ac_9_1_real_metal: - t_A1_c_r[2,1]
   + c_mar_row_A1_ac_9_1_case[1] <= 0
 mar_constraint_A1_ac_9_1_real_metal: - t_A1_c_r[3,1]
   + c_mar_row_A1_ac_9_1_case[1] <= 0
 mar_constraint_A1_ac_9_1_right_edge: - t_eol_c_r[4,1] - t_A1_c_r[4,1]
   + c_mar_row_A1_ac_9_1_case[1] <= 0
 case_selection_on_off_rule1_A1_ac_9_0: - c_mar_row_A1_ac_9_r[0]
   + c_mar_row_A1_ac_9_0_case[0] + c_mar_row_A1_ac_9_0_case[1] <= 0
 case_selection_on_off_rule2_A1_ac_9_0: - c_mar_row_A1_ac_9_r[0]
   + c_mar_row_A1_ac_9_0_case[0] + c_mar_row_A1_ac_9_0_case[1] >= 0
 mar_constraint_A1_ac_9_0_left_edge: - t_eol_c_r[0,0] - t_A1_c_r[0,0]
   + c_mar_row_A1_ac_9_0_case[0] <= 0
 mar_constraint_A1_ac_9_0_real_metal: - t_A1_c_r[1,0]
   + c_mar_row_A1_ac_9_0_case[0] <= 0
 mar_constraint_A1_ac_9_0_real_metal: - t_A1_c_r[2,0]
   + c_mar_row_A1_ac_9_0_case[0] <= 0
 mar_constraint_A1_ac_9_0_right_edge: - t_eol_c_r[3,0] - t_A1_c_r[3,0]
   + c_mar_row_A1_ac_9_0_case[0] <= 0
 mar_constraint_A1_ac_9_0_left_edge: - t_eol_c_r[1,0] - t_A1_c_r[1,0]
   + c_mar_row_A1_ac_9_0_case[1] <= 0
 mar_constraint_A1_ac_9_0_real_metal: - t_A1_c_r[2,0]
   + c_mar_row_A1_ac_9_0_case[1] <= 0
 mar_constraint_A1_ac_9_0_real_metal: - t_A1_c_r[3,0]
   + c_mar_row_A1_ac_9_0_case[1] <= 0
 mar_constraint_A1_ac_9_0_right_edge: - t_eol_c_r[4,0] - t_A1_c_r[4,0]
   + c_mar_row_A1_ac_9_0_case[1] <= 0
 row_selection_on_off_rule1_A1_pp_12: - 2 indicator_A1_pp_12
   + c_mar_row_A1_pp_12_r[3] + c_mar_row_A1_pp_12_r[2] <= 0
 row_selection_on_off_rule2_A1_pp_12: - 2 io_detector_A1
   + c_mar_row_A1_pp_12_r[3] + c_mar_row_A1_pp_12_r[2] <= 0
 row_selection_on_off_rule3_A1_pp_12: - indicator_A1_pp_12 - io_detector_A1
   + c_mar_row_A1_pp_12_r[3] + c_mar_row_A1_pp_12_r[2] >= -1
 case_selection_on_off_rule1_A1_pp_12_3: - c_mar_row_A1_pp_12_r[3]
   + c_mar_row_A1_pp_12_3_case[0] + c_mar_row_A1_pp_12_3_case[1] <= 0
 case_selection_on_off_rule2_A1_pp_12_3: - c_mar_row_A1_pp_12_r[3]
   + c_mar_row_A1_pp_12_3_case[0] + c_mar_row_A1_pp_12_3_case[1] >= 0
 mar_constraint_A1_pp_12_3_left_edge: - t_eol_c_r[1,3] - t_A1_c_r[1,3]
   + c_mar_row_A1_pp_12_3_case[0] <= 0
 mar_constraint_A1_pp_12_3_real_metal: - t_A1_c_r[2,3]
   + c_mar_row_A1_pp_12_3_case[0] <= 0
 mar_constraint_A1_pp_12_3_real_metal: - t_A1_c_r[3,3]
   + c_mar_row_A1_pp_12_3_case[0] <= 0
 mar_constraint_A1_pp_12_3_right_edge: - t_eol_c_r[4,3] - t_A1_c_r[4,3]
   + c_mar_row_A1_pp_12_3_case[0] <= 0
 mar_constraint_A1_pp_12_3_left_edge: - t_eol_c_r[2,3] - t_A1_c_r[2,3]
   + c_mar_row_A1_pp_12_3_case[1] <= 0
 mar_constraint_A1_pp_12_3_real_metal: - t_A1_c_r[3,3]
   + c_mar_row_A1_pp_12_3_case[1] <= 0
 mar_constraint_A1_pp_12_3_right_edge: - t_A1_c_r[4,3]
   + c_mar_row_A1_pp_12_3_case[1] <= 0
 case_selection_on_off_rule1_A1_pp_12_2: - c_mar_row_A1_pp_12_r[2]
   + c_mar_row_A1_pp_12_2_case[0] + c_mar_row_A1_pp_12_2_case[1] <= 0
 case_selection_on_off_rule2_A1_pp_12_2: - c_mar_row_A1_pp_12_r[2]
   + c_mar_row_A1_pp_12_2_case[0] + c_mar_row_A1_pp_12_2_case[1] >= 0
 mar_constraint_A1_pp_12_2_left_edge: - t_eol_c_r[1,2] - t_A1_c_r[1,2]
   + c_mar_row_A1_pp_12_2_case[0] <= 0
 mar_constraint_A1_pp_12_2_real_metal: - t_A1_c_r[2,2]
   + c_mar_row_A1_pp_12_2_case[0] <= 0
 mar_constraint_A1_pp_12_2_real_metal: - t_A1_c_r[3,2]
   + c_mar_row_A1_pp_12_2_case[0] <= 0
 mar_constraint_A1_pp_12_2_right_edge: - t_eol_c_r[4,2] - t_A1_c_r[4,2]
   + c_mar_row_A1_pp_12_2_case[0] <= 0
 mar_constraint_A1_pp_12_2_left_edge: - t_eol_c_r[2,2] - t_A1_c_r[2,2]
   + c_mar_row_A1_pp_12_2_case[1] <= 0
 mar_constraint_A1_pp_12_2_real_metal: - t_A1_c_r[3,2]
   + c_mar_row_A1_pp_12_2_case[1] <= 0
 mar_constraint_A1_pp_12_2_right_edge: - t_A1_c_r[4,2]
   + c_mar_row_A1_pp_12_2_case[1] <= 0
 row_selection_on_off_rule1_A1_nn_12: - 2 indicator_A1_nn_12
   + c_mar_row_A1_nn_12_r[1] + c_mar_row_A1_nn_12_r[0] <= 0
 row_selection_on_off_rule2_A1_nn_12: - 2 io_detector_A1
   + c_mar_row_A1_nn_12_r[1] + c_mar_row_A1_nn_12_r[0] <= 0
 row_selection_on_off_rule3_A1_nn_12: - indicator_A1_nn_12 - io_detector_A1
   + c_mar_row_A1_nn_12_r[1] + c_mar_row_A1_nn_12_r[0] >= -1
 case_selection_on_off_rule1_A1_nn_12_1: - c_mar_row_A1_nn_12_r[1]
   + c_mar_row_A1_nn_12_1_case[0] + c_mar_row_A1_nn_12_1_case[1] <= 0
 case_selection_on_off_rule2_A1_nn_12_1: - c_mar_row_A1_nn_12_r[1]
   + c_mar_row_A1_nn_12_1_case[0] + c_mar_row_A1_nn_12_1_case[1] >= 0
 mar_constraint_A1_nn_12_1_left_edge: - t_eol_c_r[1,1] - t_A1_c_r[1,1]
   + c_mar_row_A1_nn_12_1_case[0] <= 0
 mar_constraint_A1_nn_12_1_real_metal: - t_A1_c_r[2,1]
   + c_mar_row_A1_nn_12_1_case[0] <= 0
 mar_constraint_A1_nn_12_1_real_metal: - t_A1_c_r[3,1]
   + c_mar_row_A1_nn_12_1_case[0] <= 0
 mar_constraint_A1_nn_12_1_right_edge: - t_eol_c_r[4,1] - t_A1_c_r[4,1]
   + c_mar_row_A1_nn_12_1_case[0] <= 0
 mar_constraint_A1_nn_12_1_left_edge: - t_eol_c_r[2,1] - t_A1_c_r[2,1]
   + c_mar_row_A1_nn_12_1_case[1] <= 0
 mar_constraint_A1_nn_12_1_real_metal: - t_A1_c_r[3,1]
   + c_mar_row_A1_nn_12_1_case[1] <= 0
 mar_constraint_A1_nn_12_1_right_edge: - t_A1_c_r[4,1]
   + c_mar_row_A1_nn_12_1_case[1] <= 0
 case_selection_on_off_rule1_A1_nn_12_0: - c_mar_row_A1_nn_12_r[0]
   + c_mar_row_A1_nn_12_0_case[0] + c_mar_row_A1_nn_12_0_case[1] <= 0
 case_selection_on_off_rule2_A1_nn_12_0: - c_mar_row_A1_nn_12_r[0]
   + c_mar_row_A1_nn_12_0_case[0] + c_mar_row_A1_nn_12_0_case[1] >= 0
 mar_constraint_A1_nn_12_0_left_edge: - t_eol_c_r[1,0] - t_A1_c_r[1,0]
   + c_mar_row_A1_nn_12_0_case[0] <= 0
 mar_constraint_A1_nn_12_0_real_metal: - t_A1_c_r[2,0]
   + c_mar_row_A1_nn_12_0_case[0] <= 0
 mar_constraint_A1_nn_12_0_real_metal: - t_A1_c_r[3,0]
   + c_mar_row_A1_nn_12_0_case[0] <= 0
 mar_constraint_A1_nn_12_0_right_edge: - t_eol_c_r[4,0] - t_A1_c_r[4,0]
   + c_mar_row_A1_nn_12_0_case[0] <= 0
 mar_constraint_A1_nn_12_0_left_edge: - t_eol_c_r[2,0] - t_A1_c_r[2,0]
   + c_mar_row_A1_nn_12_0_case[1] <= 0
 mar_constraint_A1_nn_12_0_real_metal: - t_A1_c_r[3,0]
   + c_mar_row_A1_nn_12_0_case[1] <= 0
 mar_constraint_A1_nn_12_0_right_edge: - t_A1_c_r[4,0]
   + c_mar_row_A1_nn_12_0_case[1] <= 0
 row_selection_on_off_rule1_A1_ac_12: - 4 indicator_A1_ac_12
   + c_mar_row_A1_ac_12_r[3] + c_mar_row_A1_ac_12_r[2]
   + c_mar_row_A1_ac_12_r[1] + c_mar_row_A1_ac_12_r[0] <= 0
 row_selection_on_off_rule2_A1_ac_12: - 4 io_detector_A1
   + c_mar_row_A1_ac_12_r[3] + c_mar_row_A1_ac_12_r[2]
   + c_mar_row_A1_ac_12_r[1] + c_mar_row_A1_ac_12_r[0] <= 0
 row_selection_on_off_rule3_A1_ac_12: - indicator_A1_ac_12 - io_detector_A1
   + c_mar_row_A1_ac_12_r[3] + c_mar_row_A1_ac_12_r[2]
   + c_mar_row_A1_ac_12_r[1] + c_mar_row_A1_ac_12_r[0] >= -1
 case_selection_on_off_rule1_A1_ac_12_3: - c_mar_row_A1_ac_12_r[3]
   + c_mar_row_A1_ac_12_3_case[0] + c_mar_row_A1_ac_12_3_case[1] <= 0
 case_selection_on_off_rule2_A1_ac_12_3: - c_mar_row_A1_ac_12_r[3]
   + c_mar_row_A1_ac_12_3_case[0] + c_mar_row_A1_ac_12_3_case[1] >= 0
 mar_constraint_A1_ac_12_3_left_edge: - t_eol_c_r[1,3] - t_A1_c_r[1,3]
   + c_mar_row_A1_ac_12_3_case[0] <= 0
 mar_constraint_A1_ac_12_3_real_metal: - t_A1_c_r[2,3]
   + c_mar_row_A1_ac_12_3_case[0] <= 0
 mar_constraint_A1_ac_12_3_real_metal: - t_A1_c_r[3,3]
   + c_mar_row_A1_ac_12_3_case[0] <= 0
 mar_constraint_A1_ac_12_3_right_edge: - t_eol_c_r[4,3] - t_A1_c_r[4,3]
   + c_mar_row_A1_ac_12_3_case[0] <= 0
 mar_constraint_A1_ac_12_3_left_edge: - t_eol_c_r[2,3] - t_A1_c_r[2,3]
   + c_mar_row_A1_ac_12_3_case[1] <= 0
 mar_constraint_A1_ac_12_3_real_metal: - t_A1_c_r[3,3]
   + c_mar_row_A1_ac_12_3_case[1] <= 0
 mar_constraint_A1_ac_12_3_right_edge: - t_A1_c_r[4,3]
   + c_mar_row_A1_ac_12_3_case[1] <= 0
 case_selection_on_off_rule1_A1_ac_12_2: - c_mar_row_A1_ac_12_r[2]
   + c_mar_row_A1_ac_12_2_case[0] + c_mar_row_A1_ac_12_2_case[1] <= 0
 case_selection_on_off_rule2_A1_ac_12_2: - c_mar_row_A1_ac_12_r[2]
   + c_mar_row_A1_ac_12_2_case[0] + c_mar_row_A1_ac_12_2_case[1] >= 0
 mar_constraint_A1_ac_12_2_left_edge: - t_eol_c_r[1,2] - t_A1_c_r[1,2]
   + c_mar_row_A1_ac_12_2_case[0] <= 0
 mar_constraint_A1_ac_12_2_real_metal: - t_A1_c_r[2,2]
   + c_mar_row_A1_ac_12_2_case[0] <= 0
 mar_constraint_A1_ac_12_2_real_metal: - t_A1_c_r[3,2]
   + c_mar_row_A1_ac_12_2_case[0] <= 0
 mar_constraint_A1_ac_12_2_right_edge: - t_eol_c_r[4,2] - t_A1_c_r[4,2]
   + c_mar_row_A1_ac_12_2_case[0] <= 0
 mar_constraint_A1_ac_12_2_left_edge: - t_eol_c_r[2,2] - t_A1_c_r[2,2]
   + c_mar_row_A1_ac_12_2_case[1] <= 0
 mar_constraint_A1_ac_12_2_real_metal: - t_A1_c_r[3,2]
   + c_mar_row_A1_ac_12_2_case[1] <= 0
 mar_constraint_A1_ac_12_2_right_edge: - t_A1_c_r[4,2]
   + c_mar_row_A1_ac_12_2_case[1] <= 0
 case_selection_on_off_rule1_A1_ac_12_1: - c_mar_row_A1_ac_12_r[1]
   + c_mar_row_A1_ac_12_1_case[0] + c_mar_row_A1_ac_12_1_case[1] <= 0
 case_selection_on_off_rule2_A1_ac_12_1: - c_mar_row_A1_ac_12_r[1]
   + c_mar_row_A1_ac_12_1_case[0] + c_mar_row_A1_ac_12_1_case[1] >= 0
 mar_constraint_A1_ac_12_1_left_edge: - t_eol_c_r[1,1] - t_A1_c_r[1,1]
   + c_mar_row_A1_ac_12_1_case[0] <= 0
 mar_constraint_A1_ac_12_1_real_metal: - t_A1_c_r[2,1]
   + c_mar_row_A1_ac_12_1_case[0] <= 0
 mar_constraint_A1_ac_12_1_real_metal: - t_A1_c_r[3,1]
   + c_mar_row_A1_ac_12_1_case[0] <= 0
 mar_constraint_A1_ac_12_1_right_edge: - t_eol_c_r[4,1] - t_A1_c_r[4,1]
   + c_mar_row_A1_ac_12_1_case[0] <= 0
 mar_constraint_A1_ac_12_1_left_edge: - t_eol_c_r[2,1] - t_A1_c_r[2,1]
   + c_mar_row_A1_ac_12_1_case[1] <= 0
 mar_constraint_A1_ac_12_1_real_metal: - t_A1_c_r[3,1]
   + c_mar_row_A1_ac_12_1_case[1] <= 0
 mar_constraint_A1_ac_12_1_right_edge: - t_A1_c_r[4,1]
   + c_mar_row_A1_ac_12_1_case[1] <= 0
 case_selection_on_off_rule1_A1_ac_12_0: - c_mar_row_A1_ac_12_r[0]
   + c_mar_row_A1_ac_12_0_case[0] + c_mar_row_A1_ac_12_0_case[1] <= 0
 case_selection_on_off_rule2_A1_ac_12_0: - c_mar_row_A1_ac_12_r[0]
   + c_mar_row_A1_ac_12_0_case[0] + c_mar_row_A1_ac_12_0_case[1] >= 0
 mar_constraint_A1_ac_12_0_left_edge: - t_eol_c_r[1,0] - t_A1_c_r[1,0]
   + c_mar_row_A1_ac_12_0_case[0] <= 0
 mar_constraint_A1_ac_12_0_real_metal: - t_A1_c_r[2,0]
   + c_mar_row_A1_ac_12_0_case[0] <= 0
 mar_constraint_A1_ac_12_0_real_metal: - t_A1_c_r[3,0]
   + c_mar_row_A1_ac_12_0_case[0] <= 0
 mar_constraint_A1_ac_12_0_right_edge: - t_eol_c_r[4,0] - t_A1_c_r[4,0]
   + c_mar_row_A1_ac_12_0_case[0] <= 0
 mar_constraint_A1_ac_12_0_left_edge: - t_eol_c_r[2,0] - t_A1_c_r[2,0]
   + c_mar_row_A1_ac_12_0_case[1] <= 0
 mar_constraint_A1_ac_12_0_real_metal: - t_A1_c_r[3,0]
   + c_mar_row_A1_ac_12_0_case[1] <= 0
 mar_constraint_A1_ac_12_0_right_edge: - t_A1_c_r[4,0]
   + c_mar_row_A1_ac_12_0_case[1] <= 0
 row_selection_on_off_rule1_A1_pp_15: - 2 indicator_A1_pp_15
   + c_mar_row_A1_pp_15_r[3] + c_mar_row_A1_pp_15_r[2] <= 0
 row_selection_on_off_rule2_A1_pp_15: - 2 io_detector_A1
   + c_mar_row_A1_pp_15_r[3] + c_mar_row_A1_pp_15_r[2] <= 0
 row_selection_on_off_rule3_A1_pp_15: - indicator_A1_pp_15 - io_detector_A1
   + c_mar_row_A1_pp_15_r[3] + c_mar_row_A1_pp_15_r[2] >= -1
 case_selection_on_off_rule1_A1_pp_15_3: - c_mar_row_A1_pp_15_r[3]
   + c_mar_row_A1_pp_15_3_case[0] <= 0
 case_selection_on_off_rule2_A1_pp_15_3: - c_mar_row_A1_pp_15_r[3]
   + c_mar_row_A1_pp_15_3_case[0] >= 0
 mar_constraint_A1_pp_15_3_left_edge: - t_eol_c_r[2,3] - t_A1_c_r[2,3]
   + c_mar_row_A1_pp_15_3_case[0] <= 0
 mar_constraint_A1_pp_15_3_real_metal: - t_A1_c_r[3,3]
   + c_mar_row_A1_pp_15_3_case[0] <= 0
 mar_constraint_A1_pp_15_3_right_edge: - t_A1_c_r[4,3]
   + c_mar_row_A1_pp_15_3_case[0] <= 0
 case_selection_on_off_rule1_A1_pp_15_2: - c_mar_row_A1_pp_15_r[2]
   + c_mar_row_A1_pp_15_2_case[0] <= 0
 case_selection_on_off_rule2_A1_pp_15_2: - c_mar_row_A1_pp_15_r[2]
   + c_mar_row_A1_pp_15_2_case[0] >= 0
 mar_constraint_A1_pp_15_2_left_edge: - t_eol_c_r[2,2] - t_A1_c_r[2,2]
   + c_mar_row_A1_pp_15_2_case[0] <= 0
 mar_constraint_A1_pp_15_2_real_metal: - t_A1_c_r[3,2]
   + c_mar_row_A1_pp_15_2_case[0] <= 0
 mar_constraint_A1_pp_15_2_right_edge: - t_A1_c_r[4,2]
   + c_mar_row_A1_pp_15_2_case[0] <= 0
 row_selection_on_off_rule1_A1_nn_15: - 2 indicator_A1_nn_15
   + c_mar_row_A1_nn_15_r[1] + c_mar_row_A1_nn_15_r[0] <= 0
 row_selection_on_off_rule2_A1_nn_15: - 2 io_detector_A1
   + c_mar_row_A1_nn_15_r[1] + c_mar_row_A1_nn_15_r[0] <= 0
 row_selection_on_off_rule3_A1_nn_15: - indicator_A1_nn_15 - io_detector_A1
   + c_mar_row_A1_nn_15_r[1] + c_mar_row_A1_nn_15_r[0] >= -1
 case_selection_on_off_rule1_A1_nn_15_1: - c_mar_row_A1_nn_15_r[1]
   + c_mar_row_A1_nn_15_1_case[0] <= 0
 case_selection_on_off_rule2_A1_nn_15_1: - c_mar_row_A1_nn_15_r[1]
   + c_mar_row_A1_nn_15_1_case[0] >= 0
 mar_constraint_A1_nn_15_1_left_edge: - t_eol_c_r[2,1] - t_A1_c_r[2,1]
   + c_mar_row_A1_nn_15_1_case[0] <= 0
 mar_constraint_A1_nn_15_1_real_metal: - t_A1_c_r[3,1]
   + c_mar_row_A1_nn_15_1_case[0] <= 0
 mar_constraint_A1_nn_15_1_right_edge: - t_A1_c_r[4,1]
   + c_mar_row_A1_nn_15_1_case[0] <= 0
 case_selection_on_off_rule1_A1_nn_15_0: - c_mar_row_A1_nn_15_r[0]
   + c_mar_row_A1_nn_15_0_case[0] <= 0
 case_selection_on_off_rule2_A1_nn_15_0: - c_mar_row_A1_nn_15_r[0]
   + c_mar_row_A1_nn_15_0_case[0] >= 0
 mar_constraint_A1_nn_15_0_left_edge: - t_eol_c_r[2,0] - t_A1_c_r[2,0]
   + c_mar_row_A1_nn_15_0_case[0] <= 0
 mar_constraint_A1_nn_15_0_real_metal: - t_A1_c_r[3,0]
   + c_mar_row_A1_nn_15_0_case[0] <= 0
 mar_constraint_A1_nn_15_0_right_edge: - t_A1_c_r[4,0]
   + c_mar_row_A1_nn_15_0_case[0] <= 0
 row_selection_on_off_rule1_A1_ac_15: - 4 indicator_A1_ac_15
   + c_mar_row_A1_ac_15_r[3] + c_mar_row_A1_ac_15_r[2]
   + c_mar_row_A1_ac_15_r[1] + c_mar_row_A1_ac_15_r[0] <= 0
 row_selection_on_off_rule2_A1_ac_15: - 4 io_detector_A1
   + c_mar_row_A1_ac_15_r[3] + c_mar_row_A1_ac_15_r[2]
   + c_mar_row_A1_ac_15_r[1] + c_mar_row_A1_ac_15_r[0] <= 0
 row_selection_on_off_rule3_A1_ac_15: - indicator_A1_ac_15 - io_detector_A1
   + c_mar_row_A1_ac_15_r[3] + c_mar_row_A1_ac_15_r[2]
   + c_mar_row_A1_ac_15_r[1] + c_mar_row_A1_ac_15_r[0] >= -1
 case_selection_on_off_rule1_A1_ac_15_3: - c_mar_row_A1_ac_15_r[3]
   + c_mar_row_A1_ac_15_3_case[0] <= 0
 case_selection_on_off_rule2_A1_ac_15_3: - c_mar_row_A1_ac_15_r[3]
   + c_mar_row_A1_ac_15_3_case[0] >= 0
 mar_constraint_A1_ac_15_3_left_edge: - t_eol_c_r[2,3] - t_A1_c_r[2,3]
   + c_mar_row_A1_ac_15_3_case[0] <= 0
 mar_constraint_A1_ac_15_3_real_metal: - t_A1_c_r[3,3]
   + c_mar_row_A1_ac_15_3_case[0] <= 0
 mar_constraint_A1_ac_15_3_right_edge: - t_A1_c_r[4,3]
   + c_mar_row_A1_ac_15_3_case[0] <= 0
 case_selection_on_off_rule1_A1_ac_15_2: - c_mar_row_A1_ac_15_r[2]
   + c_mar_row_A1_ac_15_2_case[0] <= 0
 case_selection_on_off_rule2_A1_ac_15_2: - c_mar_row_A1_ac_15_r[2]
   + c_mar_row_A1_ac_15_2_case[0] >= 0
 mar_constraint_A1_ac_15_2_left_edge: - t_eol_c_r[2,2] - t_A1_c_r[2,2]
   + c_mar_row_A1_ac_15_2_case[0] <= 0
 mar_constraint_A1_ac_15_2_real_metal: - t_A1_c_r[3,2]
   + c_mar_row_A1_ac_15_2_case[0] <= 0
 mar_constraint_A1_ac_15_2_right_edge: - t_A1_c_r[4,2]
   + c_mar_row_A1_ac_15_2_case[0] <= 0
 case_selection_on_off_rule1_A1_ac_15_1: - c_mar_row_A1_ac_15_r[1]
   + c_mar_row_A1_ac_15_1_case[0] <= 0
 case_selection_on_off_rule2_A1_ac_15_1: - c_mar_row_A1_ac_15_r[1]
   + c_mar_row_A1_ac_15_1_case[0] >= 0
 mar_constraint_A1_ac_15_1_left_edge: - t_eol_c_r[2,1] - t_A1_c_r[2,1]
   + c_mar_row_A1_ac_15_1_case[0] <= 0
 mar_constraint_A1_ac_15_1_real_metal: - t_A1_c_r[3,1]
   + c_mar_row_A1_ac_15_1_case[0] <= 0
 mar_constraint_A1_ac_15_1_right_edge: - t_A1_c_r[4,1]
   + c_mar_row_A1_ac_15_1_case[0] <= 0
 case_selection_on_off_rule1_A1_ac_15_0: - c_mar_row_A1_ac_15_r[0]
   + c_mar_row_A1_ac_15_0_case[0] <= 0
 case_selection_on_off_rule2_A1_ac_15_0: - c_mar_row_A1_ac_15_r[0]
   + c_mar_row_A1_ac_15_0_case[0] >= 0
 mar_constraint_A1_ac_15_0_left_edge: - t_eol_c_r[2,0] - t_A1_c_r[2,0]
   + c_mar_row_A1_ac_15_0_case[0] <= 0
 mar_constraint_A1_ac_15_0_real_metal: - t_A1_c_r[3,0]
   + c_mar_row_A1_ac_15_0_case[0] <= 0
 mar_constraint_A1_ac_15_0_right_edge: - t_A1_c_r[4,0]
   + c_mar_row_A1_ac_15_0_case[0] <= 0
 global_zero_constraint_A1_pv_3_pv_4_3: - indicator_A1_pp_3
   - indicator_A1_nn_3 - indicator_A1_ac_3 - indicator_A1_pp_6
   - indicator_A1_nn_6 - indicator_A1_ac_6 - indicator_A1_pp_9
   - indicator_A1_nn_9 - indicator_A1_ac_9 - indicator_A1_pp_12
   - indicator_A1_nn_12 - indicator_A1_ac_12 - indicator_A1_pp_15
   - indicator_A1_nn_15 - indicator_A1_ac_15 + y_A1_edge_pv_3_pv_4_3 <= -1
 active_c_ge_min_indicator_min_bbox_A1_pv_3_pv_4_3: min_indicator_A1
   + 5 y_A1_edge_pv_3_pv_4_3 <= 6
 active_c_ge_max_bbox_min_bbox_A1_pv_3_pv_4_3: - max_bbox_A1
   + 5 y_A1_edge_pv_3_pv_4_3 <= 4
 edge_flow_ub_A1_pv_3_pv_4_3: - 2 y_A1_edge_pv_3_pv_4_3
   + f_A1_edge_pv_3_pv_4_3 <= 0
 edge_flow_lb_A1_pv_3_pv_4_3: 2 y_A1_edge_pv_3_pv_4_3
   + f_A1_edge_pv_3_pv_4_3 >= 0
 global_zero_constraint_A1_pv_3_pv_4_2: - indicator_A1_pp_3
   - indicator_A1_nn_3 - indicator_A1_ac_3 - indicator_A1_pp_6
   - indicator_A1_nn_6 - indicator_A1_ac_6 - indicator_A1_pp_9
   - indicator_A1_nn_9 - indicator_A1_ac_9 - indicator_A1_pp_12
   - indicator_A1_nn_12 - indicator_A1_ac_12 - indicator_A1_pp_15
   - indicator_A1_nn_15 - indicator_A1_ac_15 + y_A1_edge_pv_3_pv_4_2 <= -1
 active_c_ge_min_indicator_min_bbox_A1_pv_3_pv_4_2: min_indicator_A1
   + 5 y_A1_edge_pv_3_pv_4_2 <= 6
 active_c_ge_max_bbox_min_bbox_A1_pv_3_pv_4_2: - max_bbox_A1
   + 5 y_A1_edge_pv_3_pv_4_2 <= 4
 edge_flow_ub_A1_pv_3_pv_4_2: - 2 y_A1_edge_pv_3_pv_4_2
   + f_A1_edge_pv_3_pv_4_2 <= 0
 edge_flow_lb_A1_pv_3_pv_4_2: 2 y_A1_edge_pv_3_pv_4_2
   + f_A1_edge_pv_3_pv_4_2 >= 0
 global_zero_constraint_A1_nv_3_nv_4_1: - indicator_A1_pp_3
   - indicator_A1_nn_3 - indicator_A1_ac_3 - indicator_A1_pp_6
   - indicator_A1_nn_6 - indicator_A1_ac_6 - indicator_A1_pp_9
   - indicator_A1_nn_9 - indicator_A1_ac_9 - indicator_A1_pp_12
   - indicator_A1_nn_12 - indicator_A1_ac_12 - indicator_A1_pp_15
   - indicator_A1_nn_15 - indicator_A1_ac_15 + y_A1_edge_nv_3_nv_4_1 <= -1
 active_c_ge_min_indicator_min_bbox_A1_nv_3_nv_4_1: min_indicator_A1
   + 5 y_A1_edge_nv_3_nv_4_1 <= 6
 active_c_ge_max_bbox_min_bbox_A1_nv_3_nv_4_1: - max_bbox_A1
   + 5 y_A1_edge_nv_3_nv_4_1 <= 4
 edge_flow_ub_A1_nv_3_nv_4_1: - 2 y_A1_edge_nv_3_nv_4_1
   + f_A1_edge_nv_3_nv_4_1 <= 0
 edge_flow_lb_A1_nv_3_nv_4_1: 2 y_A1_edge_nv_3_nv_4_1
   + f_A1_edge_nv_3_nv_4_1 >= 0
 global_zero_constraint_A1_nv_3_nv_4_0: - indicator_A1_pp_3
   - indicator_A1_nn_3 - indicator_A1_ac_3 - indicator_A1_pp_6
   - indicator_A1_nn_6 - indicator_A1_ac_6 - indicator_A1_pp_9
   - indicator_A1_nn_9 - indicator_A1_ac_9 - indicator_A1_pp_12
   - indicator_A1_nn_12 - indicator_A1_ac_12 - indicator_A1_pp_15
   - indicator_A1_nn_15 - indicator_A1_ac_15 + y_A1_edge_nv_3_nv_4_0 <= -1
 active_c_ge_min_indicator_min_bbox_A1_nv_3_nv_4_0: min_indicator_A1
   + 5 y_A1_edge_nv_3_nv_4_0 <= 6
 active_c_ge_max_bbox_min_bbox_A1_nv_3_nv_4_0: - max_bbox_A1
   + 5 y_A1_edge_nv_3_nv_4_0 <= 4
 edge_flow_ub_A1_nv_3_nv_4_0: - 2 y_A1_edge_nv_3_nv_4_0
   + f_A1_edge_nv_3_nv_4_0 <= 0
 edge_flow_lb_A1_nv_3_nv_4_0: 2 y_A1_edge_nv_3_nv_4_0
   + f_A1_edge_nv_3_nv_4_0 >= 0
 global_zero_constraint_A1_pv_4_pv_6_3: - indicator_A1_pp_3
   - indicator_A1_nn_3 - indicator_A1_ac_3 - indicator_A1_pp_6
   - indicator_A1_nn_6 - indicator_A1_ac_6 - indicator_A1_pp_9
   - indicator_A1_nn_9 - indicator_A1_ac_9 - indicator_A1_pp_12
   - indicator_A1_nn_12 - indicator_A1_ac_12 - indicator_A1_pp_15
   - indicator_A1_nn_15 - indicator_A1_ac_15 + y_A1_edge_pv_4_pv_6_3 <= -1
 active_c_ge_min_indicator_min_bbox_A1_pv_4_pv_6_3: min_indicator_A1
   + 5 y_A1_edge_pv_4_pv_6_3 <= 6
 active_c_ge_max_bbox_min_bbox_A1_pv_4_pv_6_3: - max_bbox_A1
   + 5 y_A1_edge_pv_4_pv_6_3 <= 4
 edge_flow_ub_A1_pv_4_pv_6_3: - 2 y_A1_edge_pv_4_pv_6_3
   + f_A1_edge_pv_4_pv_6_3 <= 0
 edge_flow_lb_A1_pv_4_pv_6_3: 2 y_A1_edge_pv_4_pv_6_3
   + f_A1_edge_pv_4_pv_6_3 >= 0
 global_zero_constraint_A1_pv_4_pv_6_2: - indicator_A1_pp_3
   - indicator_A1_nn_3 - indicator_A1_ac_3 - indicator_A1_pp_6
   - indicator_A1_nn_6 - indicator_A1_ac_6 - indicator_A1_pp_9
   - indicator_A1_nn_9 - indicator_A1_ac_9 - indicator_A1_pp_12
   - indicator_A1_nn_12 - indicator_A1_ac_12 - indicator_A1_pp_15
   - indicator_A1_nn_15 - indicator_A1_ac_15 + y_A1_edge_pv_4_pv_6_2 <= -1
 active_c_ge_min_indicator_min_bbox_A1_pv_4_pv_6_2: min_indicator_A1
   + 5 y_A1_edge_pv_4_pv_6_2 <= 6
 active_c_ge_max_bbox_min_bbox_A1_pv_4_pv_6_2: - max_bbox_A1
   + 5 y_A1_edge_pv_4_pv_6_2 <= 4
 edge_flow_ub_A1_pv_4_pv_6_2: - 2 y_A1_edge_pv_4_pv_6_2
   + f_A1_edge_pv_4_pv_6_2 <= 0
 edge_flow_lb_A1_pv_4_pv_6_2: 2 y_A1_edge_pv_4_pv_6_2
   + f_A1_edge_pv_4_pv_6_2 >= 0
 global_zero_constraint_A1_nv_4_nv_6_1: - indicator_A1_pp_3
   - indicator_A1_nn_3 - indicator_A1_ac_3 - indicator_A1_pp_6
   - indicator_A1_nn_6 - indicator_A1_ac_6 - indicator_A1_pp_9
   - indicator_A1_nn_9 - indicator_A1_ac_9 - indicator_A1_pp_12
   - indicator_A1_nn_12 - indicator_A1_ac_12 - indicator_A1_pp_15
   - indicator_A1_nn_15 - indicator_A1_ac_15 + y_A1_edge_nv_4_nv_6_1 <= -1
 active_c_ge_min_indicator_min_bbox_A1_nv_4_nv_6_1: min_indicator_A1
   + 5 y_A1_edge_nv_4_nv_6_1 <= 6
 active_c_ge_max_bbox_min_bbox_A1_nv_4_nv_6_1: - max_bbox_A1
   + 5 y_A1_edge_nv_4_nv_6_1 <= 4
 edge_flow_ub_A1_nv_4_nv_6_1: - 2 y_A1_edge_nv_4_nv_6_1
   + f_A1_edge_nv_4_nv_6_1 <= 0
 edge_flow_lb_A1_nv_4_nv_6_1: 2 y_A1_edge_nv_4_nv_6_1
   + f_A1_edge_nv_4_nv_6_1 >= 0
 global_zero_constraint_A1_nv_4_nv_6_0: - indicator_A1_pp_3
   - indicator_A1_nn_3 - indicator_A1_ac_3 - indicator_A1_pp_6
   - indicator_A1_nn_6 - indicator_A1_ac_6 - indicator_A1_pp_9
   - indicator_A1_nn_9 - indicator_A1_ac_9 - indicator_A1_pp_12
   - indicator_A1_nn_12 - indicator_A1_ac_12 - indicator_A1_pp_15
   - indicator_A1_nn_15 - indicator_A1_ac_15 + y_A1_edge_nv_4_nv_6_0 <= -1
 active_c_ge_min_indicator_min_bbox_A1_nv_4_nv_6_0: min_indicator_A1
   + 5 y_A1_edge_nv_4_nv_6_0 <= 6
 active_c_ge_max_bbox_min_bbox_A1_nv_4_nv_6_0: - max_bbox_A1
   + 5 y_A1_edge_nv_4_nv_6_0 <= 4
 edge_flow_ub_A1_nv_4_nv_6_0: - 2 y_A1_edge_nv_4_nv_6_0
   + f_A1_edge_nv_4_nv_6_0 <= 0
 edge_flow_lb_A1_nv_4_nv_6_0: 2 y_A1_edge_nv_4_nv_6_0
   + f_A1_edge_nv_4_nv_6_0 >= 0
 global_zero_constraint_A1_pv_6_pv_8_3: - indicator_A1_pp_3
   - indicator_A1_nn_3 - indicator_A1_ac_3 - indicator_A1_pp_6
   - indicator_A1_nn_6 - indicator_A1_ac_6 - indicator_A1_pp_9
   - indicator_A1_nn_9 - indicator_A1_ac_9 - indicator_A1_pp_12
   - indicator_A1_nn_12 - indicator_A1_ac_12 - indicator_A1_pp_15
   - indicator_A1_nn_15 - indicator_A1_ac_15 + y_A1_edge_pv_6_pv_8_3 <= -1
 active_c_ge_min_indicator_min_bbox_A1_pv_6_pv_8_3: min_indicator_A1
   + 5 y_A1_edge_pv_6_pv_8_3 <= 7
 active_c_ge_max_bbox_min_bbox_A1_pv_6_pv_8_3: - max_bbox_A1
   + 5 y_A1_edge_pv_6_pv_8_3 <= 3
 edge_flow_ub_A1_pv_6_pv_8_3: - 2 y_A1_edge_pv_6_pv_8_3
   + f_A1_edge_pv_6_pv_8_3 <= 0
 edge_flow_lb_A1_pv_6_pv_8_3: 2 y_A1_edge_pv_6_pv_8_3
   + f_A1_edge_pv_6_pv_8_3 >= 0
 global_zero_constraint_A1_pv_6_pv_8_2: - indicator_A1_pp_3
   - indicator_A1_nn_3 - indicator_A1_ac_3 - indicator_A1_pp_6
   - indicator_A1_nn_6 - indicator_A1_ac_6 - indicator_A1_pp_9
   - indicator_A1_nn_9 - indicator_A1_ac_9 - indicator_A1_pp_12
   - indicator_A1_nn_12 - indicator_A1_ac_12 - indicator_A1_pp_15
   - indicator_A1_nn_15 - indicator_A1_ac_15 + y_A1_edge_pv_6_pv_8_2 <= -1
 active_c_ge_min_indicator_min_bbox_A1_pv_6_pv_8_2: min_indicator_A1
   + 5 y_A1_edge_pv_6_pv_8_2 <= 7
 active_c_ge_max_bbox_min_bbox_A1_pv_6_pv_8_2: - max_bbox_A1
   + 5 y_A1_edge_pv_6_pv_8_2 <= 3
 edge_flow_ub_A1_pv_6_pv_8_2: - 2 y_A1_edge_pv_6_pv_8_2
   + f_A1_edge_pv_6_pv_8_2 <= 0
 edge_flow_lb_A1_pv_6_pv_8_2: 2 y_A1_edge_pv_6_pv_8_2
   + f_A1_edge_pv_6_pv_8_2 >= 0
 global_zero_constraint_A1_nv_6_nv_8_1: - indicator_A1_pp_3
   - indicator_A1_nn_3 - indicator_A1_ac_3 - indicator_A1_pp_6
   - indicator_A1_nn_6 - indicator_A1_ac_6 - indicator_A1_pp_9
   - indicator_A1_nn_9 - indicator_A1_ac_9 - indicator_A1_pp_12
   - indicator_A1_nn_12 - indicator_A1_ac_12 - indicator_A1_pp_15
   - indicator_A1_nn_15 - indicator_A1_ac_15 + y_A1_edge_nv_6_nv_8_1 <= -1
 active_c_ge_min_indicator_min_bbox_A1_nv_6_nv_8_1: min_indicator_A1
   + 5 y_A1_edge_nv_6_nv_8_1 <= 7
 active_c_ge_max_bbox_min_bbox_A1_nv_6_nv_8_1: - max_bbox_A1
   + 5 y_A1_edge_nv_6_nv_8_1 <= 3
 edge_flow_ub_A1_nv_6_nv_8_1: - 2 y_A1_edge_nv_6_nv_8_1
   + f_A1_edge_nv_6_nv_8_1 <= 0
 edge_flow_lb_A1_nv_6_nv_8_1: 2 y_A1_edge_nv_6_nv_8_1
   + f_A1_edge_nv_6_nv_8_1 >= 0
 global_zero_constraint_A1_nv_6_nv_8_0: - indicator_A1_pp_3
   - indicator_A1_nn_3 - indicator_A1_ac_3 - indicator_A1_pp_6
   - indicator_A1_nn_6 - indicator_A1_ac_6 - indicator_A1_pp_9
   - indicator_A1_nn_9 - indicator_A1_ac_9 - indicator_A1_pp_12
   - indicator_A1_nn_12 - indicator_A1_ac_12 - indicator_A1_pp_15
   - indicator_A1_nn_15 - indicator_A1_ac_15 + y_A1_edge_nv_6_nv_8_0 <= -1
 active_c_ge_min_indicator_min_bbox_A1_nv_6_nv_8_0: min_indicator_A1
   + 5 y_A1_edge_nv_6_nv_8_0 <= 7
 active_c_ge_max_bbox_min_bbox_A1_nv_6_nv_8_0: - max_bbox_A1
   + 5 y_A1_edge_nv_6_nv_8_0 <= 3
 edge_flow_ub_A1_nv_6_nv_8_0: - 2 y_A1_edge_nv_6_nv_8_0
   + f_A1_edge_nv_6_nv_8_0 <= 0
 edge_flow_lb_A1_nv_6_nv_8_0: 2 y_A1_edge_nv_6_nv_8_0
   + f_A1_edge_nv_6_nv_8_0 >= 0
 global_zero_constraint_A1_pv_8_pv_9_3: - indicator_A1_pp_3
   - indicator_A1_nn_3 - indicator_A1_ac_3 - indicator_A1_pp_6
   - indicator_A1_nn_6 - indicator_A1_ac_6 - indicator_A1_pp_9
   - indicator_A1_nn_9 - indicator_A1_ac_9 - indicator_A1_pp_12
   - indicator_A1_nn_12 - indicator_A1_ac_12 - indicator_A1_pp_15
   - indicator_A1_nn_15 - indicator_A1_ac_15 + y_A1_edge_pv_8_pv_9_3 <= -1
 active_c_ge_min_indicator_min_bbox_A1_pv_8_pv_9_3: min_indicator_A1
   + 5 y_A1_edge_pv_8_pv_9_3 <= 7
 active_c_ge_max_bbox_min_bbox_A1_pv_8_pv_9_3: - max_bbox_A1
   + 5 y_A1_edge_pv_8_pv_9_3 <= 3
 edge_flow_ub_A1_pv_8_pv_9_3: - 2 y_A1_edge_pv_8_pv_9_3
   + f_A1_edge_pv_8_pv_9_3 <= 0
 edge_flow_lb_A1_pv_8_pv_9_3: 2 y_A1_edge_pv_8_pv_9_3
   + f_A1_edge_pv_8_pv_9_3 >= 0
 global_zero_constraint_A1_pv_8_pv_9_2: - indicator_A1_pp_3
   - indicator_A1_nn_3 - indicator_A1_ac_3 - indicator_A1_pp_6
   - indicator_A1_nn_6 - indicator_A1_ac_6 - indicator_A1_pp_9
   - indicator_A1_nn_9 - indicator_A1_ac_9 - indicator_A1_pp_12
   - indicator_A1_nn_12 - indicator_A1_ac_12 - indicator_A1_pp_15
   - indicator_A1_nn_15 - indicator_A1_ac_15 + y_A1_edge_pv_8_pv_9_2 <= -1
 active_c_ge_min_indicator_min_bbox_A1_pv_8_pv_9_2: min_indicator_A1
   + 5 y_A1_edge_pv_8_pv_9_2 <= 7
 active_c_ge_max_bbox_min_bbox_A1_pv_8_pv_9_2: - max_bbox_A1
   + 5 y_A1_edge_pv_8_pv_9_2 <= 3
 edge_flow_ub_A1_pv_8_pv_9_2: - 2 y_A1_edge_pv_8_pv_9_2
   + f_A1_edge_pv_8_pv_9_2 <= 0
 edge_flow_lb_A1_pv_8_pv_9_2: 2 y_A1_edge_pv_8_pv_9_2
   + f_A1_edge_pv_8_pv_9_2 >= 0
 global_zero_constraint_A1_nv_8_nv_9_1: - indicator_A1_pp_3
   - indicator_A1_nn_3 - indicator_A1_ac_3 - indicator_A1_pp_6
   - indicator_A1_nn_6 - indicator_A1_ac_6 - indicator_A1_pp_9
   - indicator_A1_nn_9 - indicator_A1_ac_9 - indicator_A1_pp_12
   - indicator_A1_nn_12 - indicator_A1_ac_12 - indicator_A1_pp_15
   - indicator_A1_nn_15 - indicator_A1_ac_15 + y_A1_edge_nv_8_nv_9_1 <= -1
 active_c_ge_min_indicator_min_bbox_A1_nv_8_nv_9_1: min_indicator_A1
   + 5 y_A1_edge_nv_8_nv_9_1 <= 7
 active_c_ge_max_bbox_min_bbox_A1_nv_8_nv_9_1: - max_bbox_A1
   + 5 y_A1_edge_nv_8_nv_9_1 <= 3
 edge_flow_ub_A1_nv_8_nv_9_1: - 2 y_A1_edge_nv_8_nv_9_1
   + f_A1_edge_nv_8_nv_9_1 <= 0
 edge_flow_lb_A1_nv_8_nv_9_1: 2 y_A1_edge_nv_8_nv_9_1
   + f_A1_edge_nv_8_nv_9_1 >= 0
 global_zero_constraint_A1_nv_8_nv_9_0: - indicator_A1_pp_3
   - indicator_A1_nn_3 - indicator_A1_ac_3 - indicator_A1_pp_6
   - indicator_A1_nn_6 - indicator_A1_ac_6 - indicator_A1_pp_9
   - indicator_A1_nn_9 - indicator_A1_ac_9 - indicator_A1_pp_12
   - indicator_A1_nn_12 - indicator_A1_ac_12 - indicator_A1_pp_15
   - indicator_A1_nn_15 - indicator_A1_ac_15 + y_A1_edge_nv_8_nv_9_0 <= -1
 active_c_ge_min_indicator_min_bbox_A1_nv_8_nv_9_0: min_indicator_A1
   + 5 y_A1_edge_nv_8_nv_9_0 <= 7
 active_c_ge_max_bbox_min_bbox_A1_nv_8_nv_9_0: - max_bbox_A1
   + 5 y_A1_edge_nv_8_nv_9_0 <= 3
 edge_flow_ub_A1_nv_8_nv_9_0: - 2 y_A1_edge_nv_8_nv_9_0
   + f_A1_edge_nv_8_nv_9_0 <= 0
 edge_flow_lb_A1_nv_8_nv_9_0: 2 y_A1_edge_nv_8_nv_9_0
   + f_A1_edge_nv_8_nv_9_0 >= 0
 global_zero_constraint_A1_pv_9_pv_12_3: - indicator_A1_pp_3
   - indicator_A1_nn_3 - indicator_A1_ac_3 - indicator_A1_pp_6
   - indicator_A1_nn_6 - indicator_A1_ac_6 - indicator_A1_pp_9
   - indicator_A1_nn_9 - indicator_A1_ac_9 - indicator_A1_pp_12
   - indicator_A1_nn_12 - indicator_A1_ac_12 - indicator_A1_pp_15
   - indicator_A1_nn_15 - indicator_A1_ac_15 + y_A1_edge_pv_9_pv_12_3
   <= -1
 active_c_ge_min_indicator_min_bbox_A1_pv_9_pv_12_3: min_indicator_A1
   + 5 y_A1_edge_pv_9_pv_12_3 <= 8
 active_c_ge_max_bbox_min_bbox_A1_pv_9_pv_12_3: - max_bbox_A1
   + 5 y_A1_edge_pv_9_pv_12_3 <= 2
 edge_flow_ub_A1_pv_9_pv_12_3: - 2 y_A1_edge_pv_9_pv_12_3
   + f_A1_edge_pv_9_pv_12_3 <= 0
 edge_flow_lb_A1_pv_9_pv_12_3: 2 y_A1_edge_pv_9_pv_12_3
   + f_A1_edge_pv_9_pv_12_3 >= 0
 global_zero_constraint_A1_pv_9_pv_12_2: - indicator_A1_pp_3
   - indicator_A1_nn_3 - indicator_A1_ac_3 - indicator_A1_pp_6
   - indicator_A1_nn_6 - indicator_A1_ac_6 - indicator_A1_pp_9
   - indicator_A1_nn_9 - indicator_A1_ac_9 - indicator_A1_pp_12
   - indicator_A1_nn_12 - indicator_A1_ac_12 - indicator_A1_pp_15
   - indicator_A1_nn_15 - indicator_A1_ac_15 + y_A1_edge_pv_9_pv_12_2
   <= -1
 active_c_ge_min_indicator_min_bbox_A1_pv_9_pv_12_2: min_indicator_A1
   + 5 y_A1_edge_pv_9_pv_12_2 <= 8
 active_c_ge_max_bbox_min_bbox_A1_pv_9_pv_12_2: - max_bbox_A1
   + 5 y_A1_edge_pv_9_pv_12_2 <= 2
 edge_flow_ub_A1_pv_9_pv_12_2: - 2 y_A1_edge_pv_9_pv_12_2
   + f_A1_edge_pv_9_pv_12_2 <= 0
 edge_flow_lb_A1_pv_9_pv_12_2: 2 y_A1_edge_pv_9_pv_12_2
   + f_A1_edge_pv_9_pv_12_2 >= 0
 global_zero_constraint_A1_nv_9_nv_12_1: - indicator_A1_pp_3
   - indicator_A1_nn_3 - indicator_A1_ac_3 - indicator_A1_pp_6
   - indicator_A1_nn_6 - indicator_A1_ac_6 - indicator_A1_pp_9
   - indicator_A1_nn_9 - indicator_A1_ac_9 - indicator_A1_pp_12
   - indicator_A1_nn_12 - indicator_A1_ac_12 - indicator_A1_pp_15
   - indicator_A1_nn_15 - indicator_A1_ac_15 + y_A1_edge_nv_9_nv_12_1
   <= -1
 active_c_ge_min_indicator_min_bbox_A1_nv_9_nv_12_1: min_indicator_A1
   + 5 y_A1_edge_nv_9_nv_12_1 <= 8
 active_c_ge_max_bbox_min_bbox_A1_nv_9_nv_12_1: - max_bbox_A1
   + 5 y_A1_edge_nv_9_nv_12_1 <= 2
 edge_flow_ub_A1_nv_9_nv_12_1: - 2 y_A1_edge_nv_9_nv_12_1
   + f_A1_edge_nv_9_nv_12_1 <= 0
 edge_flow_lb_A1_nv_9_nv_12_1: 2 y_A1_edge_nv_9_nv_12_1
   + f_A1_edge_nv_9_nv_12_1 >= 0
 global_zero_constraint_A1_nv_9_nv_12_0: - indicator_A1_pp_3
   - indicator_A1_nn_3 - indicator_A1_ac_3 - indicator_A1_pp_6
   - indicator_A1_nn_6 - indicator_A1_ac_6 - indicator_A1_pp_9
   - indicator_A1_nn_9 - indicator_A1_ac_9 - indicator_A1_pp_12
   - indicator_A1_nn_12 - indicator_A1_ac_12 - indicator_A1_pp_15
   - indicator_A1_nn_15 - indicator_A1_ac_15 + y_A1_edge_nv_9_nv_12_0
   <= -1
 active_c_ge_min_indicator_min_bbox_A1_nv_9_nv_12_0: min_indicator_A1
   + 5 y_A1_edge_nv_9_nv_12_0 <= 8
 active_c_ge_max_bbox_min_bbox_A1_nv_9_nv_12_0: - max_bbox_A1
   + 5 y_A1_edge_nv_9_nv_12_0 <= 2
 edge_flow_ub_A1_nv_9_nv_12_0: - 2 y_A1_edge_nv_9_nv_12_0
   + f_A1_edge_nv_9_nv_12_0 <= 0
 edge_flow_lb_A1_nv_9_nv_12_0: 2 y_A1_edge_nv_9_nv_12_0
   + f_A1_edge_nv_9_nv_12_0 >= 0
 global_zero_constraint_A1_pv_12_pv_15_3: - indicator_A1_pp_3
   - indicator_A1_nn_3 - indicator_A1_ac_3 - indicator_A1_pp_6
   - indicator_A1_nn_6 - indicator_A1_ac_6 - indicator_A1_pp_9
   - indicator_A1_nn_9 - indicator_A1_ac_9 - indicator_A1_pp_12
   - indicator_A1_nn_12 - indicator_A1_ac_12 - indicator_A1_pp_15
   - indicator_A1_nn_15 - indicator_A1_ac_15 + y_A1_edge_pv_12_pv_15_3
   <= -1
 active_c_ge_min_indicator_min_bbox_A1_pv_12_pv_15_3: min_indicator_A1
   + 5 y_A1_edge_pv_12_pv_15_3 <= 9
 active_c_ge_max_bbox_min_bbox_A1_pv_12_pv_15_3: - max_bbox_A1
   + 5 y_A1_edge_pv_12_pv_15_3 <= 1
 edge_flow_ub_A1_pv_12_pv_15_3: - 2 y_A1_edge_pv_12_pv_15_3
   + f_A1_edge_pv_12_pv_15_3 <= 0
 edge_flow_lb_A1_pv_12_pv_15_3: 2 y_A1_edge_pv_12_pv_15_3
   + f_A1_edge_pv_12_pv_15_3 >= 0
 global_zero_constraint_A1_pv_12_pv_15_2: - indicator_A1_pp_3
   - indicator_A1_nn_3 - indicator_A1_ac_3 - indicator_A1_pp_6
   - indicator_A1_nn_6 - indicator_A1_ac_6 - indicator_A1_pp_9
   - indicator_A1_nn_9 - indicator_A1_ac_9 - indicator_A1_pp_12
   - indicator_A1_nn_12 - indicator_A1_ac_12 - indicator_A1_pp_15
   - indicator_A1_nn_15 - indicator_A1_ac_15 + y_A1_edge_pv_12_pv_15_2
   <= -1
 active_c_ge_min_indicator_min_bbox_A1_pv_12_pv_15_2: min_indicator_A1
   + 5 y_A1_edge_pv_12_pv_15_2 <= 9
 active_c_ge_max_bbox_min_bbox_A1_pv_12_pv_15_2: - max_bbox_A1
   + 5 y_A1_edge_pv_12_pv_15_2 <= 1
 edge_flow_ub_A1_pv_12_pv_15_2: - 2 y_A1_edge_pv_12_pv_15_2
   + f_A1_edge_pv_12_pv_15_2 <= 0
 edge_flow_lb_A1_pv_12_pv_15_2: 2 y_A1_edge_pv_12_pv_15_2
   + f_A1_edge_pv_12_pv_15_2 >= 0
 global_zero_constraint_A1_nv_12_nv_15_1: - indicator_A1_pp_3
   - indicator_A1_nn_3 - indicator_A1_ac_3 - indicator_A1_pp_6
   - indicator_A1_nn_6 - indicator_A1_ac_6 - indicator_A1_pp_9
   - indicator_A1_nn_9 - indicator_A1_ac_9 - indicator_A1_pp_12
   - indicator_A1_nn_12 - indicator_A1_ac_12 - indicator_A1_pp_15
   - indicator_A1_nn_15 - indicator_A1_ac_15 + y_A1_edge_nv_12_nv_15_1
   <= -1
 active_c_ge_min_indicator_min_bbox_A1_nv_12_nv_15_1: min_indicator_A1
   + 5 y_A1_edge_nv_12_nv_15_1 <= 9
 active_c_ge_max_bbox_min_bbox_A1_nv_12_nv_15_1: - max_bbox_A1
   + 5 y_A1_edge_nv_12_nv_15_1 <= 1
 edge_flow_ub_A1_nv_12_nv_15_1: - 2 y_A1_edge_nv_12_nv_15_1
   + f_A1_edge_nv_12_nv_15_1 <= 0
 edge_flow_lb_A1_nv_12_nv_15_1: 2 y_A1_edge_nv_12_nv_15_1
   + f_A1_edge_nv_12_nv_15_1 >= 0
 global_zero_constraint_A1_nv_12_nv_15_0: - indicator_A1_pp_3
   - indicator_A1_nn_3 - indicator_A1_ac_3 - indicator_A1_pp_6
   - indicator_A1_nn_6 - indicator_A1_ac_6 - indicator_A1_pp_9
   - indicator_A1_nn_9 - indicator_A1_ac_9 - indicator_A1_pp_12
   - indicator_A1_nn_12 - indicator_A1_ac_12 - indicator_A1_pp_15
   - indicator_A1_nn_15 - indicator_A1_ac_15 + y_A1_edge_nv_12_nv_15_0
   <= -1
 active_c_ge_min_indicator_min_bbox_A1_nv_12_nv_15_0: min_indicator_A1
   + 5 y_A1_edge_nv_12_nv_15_0 <= 9
 active_c_ge_max_bbox_min_bbox_A1_nv_12_nv_15_0: - max_bbox_A1
   + 5 y_A1_edge_nv_12_nv_15_0 <= 1
 edge_flow_ub_A1_nv_12_nv_15_0: - 2 y_A1_edge_nv_12_nv_15_0
   + f_A1_edge_nv_12_nv_15_0 <= 0
 edge_flow_lb_A1_nv_12_nv_15_0: 2 y_A1_edge_nv_12_nv_15_0
   + f_A1_edge_nv_12_nv_15_0 >= 0
 global_zero_constraint_A1_m1_4_pv_4_ve: - indicator_A1_pp_3
   - indicator_A1_nn_3 - indicator_A1_ac_3 - indicator_A1_pp_6
   - indicator_A1_nn_6 - indicator_A1_ac_6 - indicator_A1_pp_9
   - indicator_A1_nn_9 - indicator_A1_ac_9 - indicator_A1_pp_12
   - indicator_A1_nn_12 - indicator_A1_ac_12 - indicator_A1_pp_15
   - indicator_A1_nn_15 - indicator_A1_ac_15
   + y_A1_edge_via_enable_m1_4_pv_4 <= -1
 active_c_ge_min_indicator_min_one_A1_m1_4_pv_4_ve: min_indicator_A1
   + 5 y_A1_edge_via_enable_m1_4_pv_4 <= 6
 active_c_ge_max_bbox_min_bbox_A1_m1_4_pv_4_ve: - max_bbox_A1
   + 5 y_A1_edge_via_enable_m1_4_pv_4 <= 4
 edge_flow_ub_A1_m1_4_pv_4_ve: - 2 y_A1_edge_via_enable_m1_4_pv_4
   + f_A1_edge_via_enable_m1_4_pv_4 <= 0
 edge_flow_lb_A1_m1_4_pv_4_ve: 2 y_A1_edge_via_enable_m1_4_pv_4
   + f_A1_edge_via_enable_m1_4_pv_4 >= 0
 global_zero_constraint_A1_m1_4_nv_4_ve: - indicator_A1_pp_3
   - indicator_A1_nn_3 - indicator_A1_ac_3 - indicator_A1_pp_6
   - indicator_A1_nn_6 - indicator_A1_ac_6 - indicator_A1_pp_9
   - indicator_A1_nn_9 - indicator_A1_ac_9 - indicator_A1_pp_12
   - indicator_A1_nn_12 - indicator_A1_ac_12 - indicator_A1_pp_15
   - indicator_A1_nn_15 - indicator_A1_ac_15
   + y_A1_edge_via_enable_m1_4_nv_4 <= -1
 active_c_ge_min_indicator_min_one_A1_m1_4_nv_4_ve: min_indicator_A1
   + 5 y_A1_edge_via_enable_m1_4_nv_4 <= 6
 active_c_ge_max_bbox_min_bbox_A1_m1_4_nv_4_ve: - max_bbox_A1
   + 5 y_A1_edge_via_enable_m1_4_nv_4 <= 4
 edge_flow_ub_A1_m1_4_nv_4_ve: - 2 y_A1_edge_via_enable_m1_4_nv_4
   + f_A1_edge_via_enable_m1_4_nv_4 <= 0
 edge_flow_lb_A1_m1_4_nv_4_ve: 2 y_A1_edge_via_enable_m1_4_nv_4
   + f_A1_edge_via_enable_m1_4_nv_4 >= 0
 global_zero_constraint_A1_m1_4_m1_8_7: - indicator_A1_pp_3
   - indicator_A1_nn_3 - indicator_A1_ac_3 - indicator_A1_pp_6
   - indicator_A1_nn_6 - indicator_A1_ac_6 - indicator_A1_pp_9
   - indicator_A1_nn_9 - indicator_A1_ac_9 - indicator_A1_pp_12
   - indicator_A1_nn_12 - indicator_A1_ac_12 - indicator_A1_pp_15
   - indicator_A1_nn_15 - indicator_A1_ac_15 + y_A1_edge_m1_4_m1_8_r_7
   <= -1
 active_c_ge_min_indicator_min_one_A1_m1_4_m1_8_7: min_indicator_A1
   + 5 y_A1_edge_m1_4_m1_8_r_7 <= 7
 active_c_ge_max_bbox_min_bbox_A1_m1_4_m1_8_7: - max_bbox_A1
   + 5 y_A1_edge_m1_4_m1_8_r_7 <= 3
 edge_flow_ub_A1_m1_4_m1_8_7: - 2 y_A1_edge_m1_4_m1_8_r_7
   + f_A1_edge_m1_4_m1_8_r_7 <= 0
 edge_flow_lb_A1_m1_4_m1_8_7: 2 y_A1_edge_m1_4_m1_8_r_7
   + f_A1_edge_m1_4_m1_8_r_7 >= 0
 global_zero_constraint_A1_m1_4_m1_8_6: - indicator_A1_pp_3
   - indicator_A1_nn_3 - indicator_A1_ac_3 - indicator_A1_pp_6
   - indicator_A1_nn_6 - indicator_A1_ac_6 - indicator_A1_pp_9
   - indicator_A1_nn_9 - indicator_A1_ac_9 - indicator_A1_pp_12
   - indicator_A1_nn_12 - indicator_A1_ac_12 - indicator_A1_pp_15
   - indicator_A1_nn_15 - indicator_A1_ac_15 + y_A1_edge_m1_4_m1_8_r_6
   <= -1
 active_c_ge_min_indicator_min_one_A1_m1_4_m1_8_6: min_indicator_A1
   + 5 y_A1_edge_m1_4_m1_8_r_6 <= 7
 active_c_ge_max_bbox_min_bbox_A1_m1_4_m1_8_6: - max_bbox_A1
   + 5 y_A1_edge_m1_4_m1_8_r_6 <= 3
 edge_flow_ub_A1_m1_4_m1_8_6: - 2 y_A1_edge_m1_4_m1_8_r_6
   + f_A1_edge_m1_4_m1_8_r_6 <= 0
 edge_flow_lb_A1_m1_4_m1_8_6: 2 y_A1_edge_m1_4_m1_8_r_6
   + f_A1_edge_m1_4_m1_8_r_6 >= 0
 global_zero_constraint_A1_m1_4_m1_8_5: - indicator_A1_pp_3
   - indicator_A1_nn_3 - indicator_A1_ac_3 - indicator_A1_pp_6
   - indicator_A1_nn_6 - indicator_A1_ac_6 - indicator_A1_pp_9
   - indicator_A1_nn_9 - indicator_A1_ac_9 - indicator_A1_pp_12
   - indicator_A1_nn_12 - indicator_A1_ac_12 - indicator_A1_pp_15
   - indicator_A1_nn_15 - indicator_A1_ac_15 + y_A1_edge_m1_4_m1_8_r_5
   <= -1
 active_c_ge_min_indicator_min_one_A1_m1_4_m1_8_5: min_indicator_A1
   + 5 y_A1_edge_m1_4_m1_8_r_5 <= 7
 active_c_ge_max_bbox_min_bbox_A1_m1_4_m1_8_5: - max_bbox_A1
   + 5 y_A1_edge_m1_4_m1_8_r_5 <= 3
 edge_flow_ub_A1_m1_4_m1_8_5: - 2 y_A1_edge_m1_4_m1_8_r_5
   + f_A1_edge_m1_4_m1_8_r_5 <= 0
 edge_flow_lb_A1_m1_4_m1_8_5: 2 y_A1_edge_m1_4_m1_8_r_5
   + f_A1_edge_m1_4_m1_8_r_5 >= 0
 global_zero_constraint_A1_m1_4_m1_8_4: - indicator_A1_pp_3
   - indicator_A1_nn_3 - indicator_A1_ac_3 - indicator_A1_pp_6
   - indicator_A1_nn_6 - indicator_A1_ac_6 - indicator_A1_pp_9
   - indicator_A1_nn_9 - indicator_A1_ac_9 - indicator_A1_pp_12
   - indicator_A1_nn_12 - indicator_A1_ac_12 - indicator_A1_pp_15
   - indicator_A1_nn_15 - indicator_A1_ac_15 + y_A1_edge_m1_4_m1_8_r_4
   <= -1
 active_c_ge_min_indicator_min_one_A1_m1_4_m1_8_4: min_indicator_A1
   + 5 y_A1_edge_m1_4_m1_8_r_4 <= 7
 active_c_ge_max_bbox_min_bbox_A1_m1_4_m1_8_4: - max_bbox_A1
   + 5 y_A1_edge_m1_4_m1_8_r_4 <= 3
 edge_flow_ub_A1_m1_4_m1_8_4: - 2 y_A1_edge_m1_4_m1_8_r_4
   + f_A1_edge_m1_4_m1_8_r_4 <= 0
 edge_flow_lb_A1_m1_4_m1_8_4: 2 y_A1_edge_m1_4_m1_8_r_4
   + f_A1_edge_m1_4_m1_8_r_4 >= 0
 global_zero_constraint_A1_m1_8_pv_8_ve: - indicator_A1_pp_3
   - indicator_A1_nn_3 - indicator_A1_ac_3 - indicator_A1_pp_6
   - indicator_A1_nn_6 - indicator_A1_ac_6 - indicator_A1_pp_9
   - indicator_A1_nn_9 - indicator_A1_ac_9 - indicator_A1_pp_12
   - indicator_A1_nn_12 - indicator_A1_ac_12 - indicator_A1_pp_15
   - indicator_A1_nn_15 - indicator_A1_ac_15
   + y_A1_edge_via_enable_m1_8_pv_8 <= -1
 active_c_ge_min_indicator_min_one_A1_m1_8_pv_8_ve: min_indicator_A1
   + 5 y_A1_edge_via_enable_m1_8_pv_8 <= 7
 active_c_ge_max_bbox_min_bbox_A1_m1_8_pv_8_ve: - max_bbox_A1
   + 5 y_A1_edge_via_enable_m1_8_pv_8 <= 3
 edge_flow_ub_A1_m1_8_pv_8_ve: - 2 y_A1_edge_via_enable_m1_8_pv_8
   + f_A1_edge_via_enable_m1_8_pv_8 <= 0
 edge_flow_lb_A1_m1_8_pv_8_ve: 2 y_A1_edge_via_enable_m1_8_pv_8
   + f_A1_edge_via_enable_m1_8_pv_8 >= 0
 global_zero_constraint_A1_m1_8_nv_8_ve: - indicator_A1_pp_3
   - indicator_A1_nn_3 - indicator_A1_ac_3 - indicator_A1_pp_6
   - indicator_A1_nn_6 - indicator_A1_ac_6 - indicator_A1_pp_9
   - indicator_A1_nn_9 - indicator_A1_ac_9 - indicator_A1_pp_12
   - indicator_A1_nn_12 - indicator_A1_ac_12 - indicator_A1_pp_15
   - indicator_A1_nn_15 - indicator_A1_ac_15
   + y_A1_edge_via_enable_m1_8_nv_8 <= -1
 active_c_ge_min_indicator_min_one_A1_m1_8_nv_8_ve: min_indicator_A1
   + 5 y_A1_edge_via_enable_m1_8_nv_8 <= 7
 active_c_ge_max_bbox_min_bbox_A1_m1_8_nv_8_ve: - max_bbox_A1
   + 5 y_A1_edge_via_enable_m1_8_nv_8 <= 3
 edge_flow_ub_A1_m1_8_nv_8_ve: - 2 y_A1_edge_via_enable_m1_8_nv_8
   + f_A1_edge_via_enable_m1_8_nv_8 <= 0
 edge_flow_lb_A1_m1_8_nv_8_ve: 2 y_A1_edge_via_enable_m1_8_nv_8
   + f_A1_edge_via_enable_m1_8_nv_8 >= 0
 global_zero_constraint_A1_m1_8_m1_12_7: - indicator_A1_pp_3
   - indicator_A1_nn_3 - indicator_A1_ac_3 - indicator_A1_pp_6
   - indicator_A1_nn_6 - indicator_A1_ac_6 - indicator_A1_pp_9
   - indicator_A1_nn_9 - indicator_A1_ac_9 - indicator_A1_pp_12
   - indicator_A1_nn_12 - indicator_A1_ac_12 - indicator_A1_pp_15
   - indicator_A1_nn_15 - indicator_A1_ac_15 + y_A1_edge_m1_8_m1_12_r_7
   <= -1
 active_c_ge_min_indicator_min_one_A1_m1_8_m1_12_7: min_indicator_A1
   + 5 y_A1_edge_m1_8_m1_12_r_7 <= 8
 active_c_ge_max_bbox_min_bbox_A1_m1_8_m1_12_7: - max_bbox_A1
   + 5 y_A1_edge_m1_8_m1_12_r_7 <= 2
 edge_flow_ub_A1_m1_8_m1_12_7: - 2 y_A1_edge_m1_8_m1_12_r_7
   + f_A1_edge_m1_8_m1_12_r_7 <= 0
 edge_flow_lb_A1_m1_8_m1_12_7: 2 y_A1_edge_m1_8_m1_12_r_7
   + f_A1_edge_m1_8_m1_12_r_7 >= 0
 global_zero_constraint_A1_m1_8_m1_12_6: - indicator_A1_pp_3
   - indicator_A1_nn_3 - indicator_A1_ac_3 - indicator_A1_pp_6
   - indicator_A1_nn_6 - indicator_A1_ac_6 - indicator_A1_pp_9
   - indicator_A1_nn_9 - indicator_A1_ac_9 - indicator_A1_pp_12
   - indicator_A1_nn_12 - indicator_A1_ac_12 - indicator_A1_pp_15
   - indicator_A1_nn_15 - indicator_A1_ac_15 + y_A1_edge_m1_8_m1_12_r_6
   <= -1
 active_c_ge_min_indicator_min_one_A1_m1_8_m1_12_6: min_indicator_A1
   + 5 y_A1_edge_m1_8_m1_12_r_6 <= 8
 active_c_ge_max_bbox_min_bbox_A1_m1_8_m1_12_6: - max_bbox_A1
   + 5 y_A1_edge_m1_8_m1_12_r_6 <= 2
 edge_flow_ub_A1_m1_8_m1_12_6: - 2 y_A1_edge_m1_8_m1_12_r_6
   + f_A1_edge_m1_8_m1_12_r_6 <= 0
 edge_flow_lb_A1_m1_8_m1_12_6: 2 y_A1_edge_m1_8_m1_12_r_6
   + f_A1_edge_m1_8_m1_12_r_6 >= 0
 global_zero_constraint_A1_m1_8_m1_12_5: - indicator_A1_pp_3
   - indicator_A1_nn_3 - indicator_A1_ac_3 - indicator_A1_pp_6
   - indicator_A1_nn_6 - indicator_A1_ac_6 - indicator_A1_pp_9
   - indicator_A1_nn_9 - indicator_A1_ac_9 - indicator_A1_pp_12
   - indicator_A1_nn_12 - indicator_A1_ac_12 - indicator_A1_pp_15
   - indicator_A1_nn_15 - indicator_A1_ac_15 + y_A1_edge_m1_8_m1_12_r_5
   <= -1
 active_c_ge_min_indicator_min_one_A1_m1_8_m1_12_5: min_indicator_A1
   + 5 y_A1_edge_m1_8_m1_12_r_5 <= 8
 active_c_ge_max_bbox_min_bbox_A1_m1_8_m1_12_5: - max_bbox_A1
   + 5 y_A1_edge_m1_8_m1_12_r_5 <= 2
 edge_flow_ub_A1_m1_8_m1_12_5: - 2 y_A1_edge_m1_8_m1_12_r_5
   + f_A1_edge_m1_8_m1_12_r_5 <= 0
 edge_flow_lb_A1_m1_8_m1_12_5: 2 y_A1_edge_m1_8_m1_12_r_5
   + f_A1_edge_m1_8_m1_12_r_5 >= 0
 global_zero_constraint_A1_m1_8_m1_12_4: - indicator_A1_pp_3
   - indicator_A1_nn_3 - indicator_A1_ac_3 - indicator_A1_pp_6
   - indicator_A1_nn_6 - indicator_A1_ac_6 - indicator_A1_pp_9
   - indicator_A1_nn_9 - indicator_A1_ac_9 - indicator_A1_pp_12
   - indicator_A1_nn_12 - indicator_A1_ac_12 - indicator_A1_pp_15
   - indicator_A1_nn_15 - indicator_A1_ac_15 + y_A1_edge_m1_8_m1_12_r_4
   <= -1
 active_c_ge_min_indicator_min_one_A1_m1_8_m1_12_4: min_indicator_A1
   + 5 y_A1_edge_m1_8_m1_12_r_4 <= 8
 active_c_ge_max_bbox_min_bbox_A1_m1_8_m1_12_4: - max_bbox_A1
   + 5 y_A1_edge_m1_8_m1_12_r_4 <= 2
 edge_flow_ub_A1_m1_8_m1_12_4: - 2 y_A1_edge_m1_8_m1_12_r_4
   + f_A1_edge_m1_8_m1_12_r_4 <= 0
 edge_flow_lb_A1_m1_8_m1_12_4: 2 y_A1_edge_m1_8_m1_12_r_4
   + f_A1_edge_m1_8_m1_12_r_4 >= 0
 global_zero_constraint_A1_m1_12_pv_12_ve: - indicator_A1_pp_3
   - indicator_A1_nn_3 - indicator_A1_ac_3 - indicator_A1_pp_6
   - indicator_A1_nn_6 - indicator_A1_ac_6 - indicator_A1_pp_9
   - indicator_A1_nn_9 - indicator_A1_ac_9 - indicator_A1_pp_12
   - indicator_A1_nn_12 - indicator_A1_ac_12 - indicator_A1_pp_15
   - indicator_A1_nn_15 - indicator_A1_ac_15
   + y_A1_edge_via_enable_m1_12_pv_12 <= -1
 active_c_ge_min_indicator_min_one_A1_m1_12_pv_12_ve: min_indicator_A1
   + 5 y_A1_edge_via_enable_m1_12_pv_12 <= 8
 active_c_ge_max_bbox_min_bbox_A1_m1_12_pv_12_ve: - max_bbox_A1
   + 5 y_A1_edge_via_enable_m1_12_pv_12 <= 2
 edge_flow_ub_A1_m1_12_pv_12_ve: - 2 y_A1_edge_via_enable_m1_12_pv_12
   + f_A1_edge_via_enable_m1_12_pv_12 <= 0
 edge_flow_lb_A1_m1_12_pv_12_ve: 2 y_A1_edge_via_enable_m1_12_pv_12
   + f_A1_edge_via_enable_m1_12_pv_12 >= 0
 global_zero_constraint_A1_m1_12_nv_12_ve: - indicator_A1_pp_3
   - indicator_A1_nn_3 - indicator_A1_ac_3 - indicator_A1_pp_6
   - indicator_A1_nn_6 - indicator_A1_ac_6 - indicator_A1_pp_9
   - indicator_A1_nn_9 - indicator_A1_ac_9 - indicator_A1_pp_12
   - indicator_A1_nn_12 - indicator_A1_ac_12 - indicator_A1_pp_15
   - indicator_A1_nn_15 - indicator_A1_ac_15
   + y_A1_edge_via_enable_m1_12_nv_12 <= -1
 active_c_ge_min_indicator_min_one_A1_m1_12_nv_12_ve: min_indicator_A1
   + 5 y_A1_edge_via_enable_m1_12_nv_12 <= 8
 active_c_ge_max_bbox_min_bbox_A1_m1_12_nv_12_ve: - max_bbox_A1
   + 5 y_A1_edge_via_enable_m1_12_nv_12 <= 2
 edge_flow_ub_A1_m1_12_nv_12_ve: - 2 y_A1_edge_via_enable_m1_12_nv_12
   + f_A1_edge_via_enable_m1_12_nv_12 <= 0
 edge_flow_lb_A1_m1_12_nv_12_ve: 2 y_A1_edge_via_enable_m1_12_nv_12
   + f_A1_edge_via_enable_m1_12_nv_12 >= 0
 via_enable_A1_pv_15_pv_4: - v_A1_v[0] + y_A1_edge_via_enable_m1_4_pv_4
   <= 0
 via_enable_A1_pv_15_nv_4: - v_A1_v[0] + y_A1_edge_via_enable_m1_4_nv_4
   <= 0
 via_enable_A1_pv_15_pv_8: - v_A1_v[1] + y_A1_edge_via_enable_m1_8_pv_8
   <= 0
 via_enable_A1_pv_15_nv_8: - v_A1_v[1] + y_A1_edge_via_enable_m1_8_nv_8
   <= 0
 via_enable_A1_pv_15_pv_12: - v_A1_v[2] + y_A1_edge_via_enable_m1_12_pv_12
   <= 0
 via_enable_A1_pv_15_nv_12: - v_A1_v[2] + y_A1_edge_via_enable_m1_12_nv_12
   <= 0
 t_activation_A1_pv_3_pv_4_0_3: t_A1_c_r[0,3] - y_A1_edge_pv_3_pv_4_3 >= 0
 t_activation_A1_pv_3_pv_4_1_3: t_A1_c_r[1,3] - y_A1_edge_pv_3_pv_4_3 >= 0
 logical_constraint_A1_pv_3_pv_4_j_index_3: - t_eol_c_r[2,3]
   - t_A1_c_r[2,3] + y_A1_edge_pv_3_pv_4_3 <= 0
 t_activation_A1_pv_3_pv_4_0_2: t_A1_c_r[0,2] - y_A1_edge_pv_3_pv_4_2 >= 0
 t_activation_A1_pv_3_pv_4_1_2: t_A1_c_r[1,2] - y_A1_edge_pv_3_pv_4_2 >= 0
 logical_constraint_A1_pv_3_pv_4_j_index_2: - t_eol_c_r[2,2]
   - t_A1_c_r[2,2] + y_A1_edge_pv_3_pv_4_2 <= 0
 t_activation_A1_nv_3_nv_4_0_1: t_A1_c_r[0,1] - y_A1_edge_nv_3_nv_4_1 >= 0
 t_activation_A1_nv_3_nv_4_1_1: t_A1_c_r[1,1] - y_A1_edge_nv_3_nv_4_1 >= 0
 logical_constraint_A1_nv_3_nv_4_j_index_1: - t_eol_c_r[2,1]
   - t_A1_c_r[2,1] + y_A1_edge_nv_3_nv_4_1 <= 0
 t_activation_A1_nv_3_nv_4_0_0: t_A1_c_r[0,0] - y_A1_edge_nv_3_nv_4_0 >= 0
 t_activation_A1_nv_3_nv_4_1_0: t_A1_c_r[1,0] - y_A1_edge_nv_3_nv_4_0 >= 0
 logical_constraint_A1_nv_3_nv_4_j_index_0: - t_eol_c_r[2,0]
   - t_A1_c_r[2,0] + y_A1_edge_nv_3_nv_4_0 <= 0
 t_activation_A1_pv_4_pv_6_0_3: t_A1_c_r[0,3] - y_A1_edge_pv_4_pv_6_3 >= 0
 t_activation_A1_pv_4_pv_6_1_3: t_A1_c_r[1,3] - y_A1_edge_pv_4_pv_6_3 >= 0
 logical_constraint_A1_pv_4_pv_6_j_index_3: - t_eol_c_r[2,3]
   - t_A1_c_r[2,3] + y_A1_edge_pv_4_pv_6_3 <= 0
 t_activation_A1_pv_4_pv_6_0_2: t_A1_c_r[0,2] - y_A1_edge_pv_4_pv_6_2 >= 0
 t_activation_A1_pv_4_pv_6_1_2: t_A1_c_r[1,2] - y_A1_edge_pv_4_pv_6_2 >= 0
 logical_constraint_A1_pv_4_pv_6_j_index_2: - t_eol_c_r[2,2]
   - t_A1_c_r[2,2] + y_A1_edge_pv_4_pv_6_2 <= 0
 t_activation_A1_nv_4_nv_6_0_1: t_A1_c_r[0,1] - y_A1_edge_nv_4_nv_6_1 >= 0
 t_activation_A1_nv_4_nv_6_1_1: t_A1_c_r[1,1] - y_A1_edge_nv_4_nv_6_1 >= 0
 logical_constraint_A1_nv_4_nv_6_j_index_1: - t_eol_c_r[2,1]
   - t_A1_c_r[2,1] + y_A1_edge_nv_4_nv_6_1 <= 0
 t_activation_A1_nv_4_nv_6_0_0: t_A1_c_r[0,0] - y_A1_edge_nv_4_nv_6_0 >= 0
 t_activation_A1_nv_4_nv_6_1_0: t_A1_c_r[1,0] - y_A1_edge_nv_4_nv_6_0 >= 0
 logical_constraint_A1_nv_4_nv_6_j_index_0: - t_eol_c_r[2,0]
   - t_A1_c_r[2,0] + y_A1_edge_nv_4_nv_6_0 <= 0
 t_activation_A1_pv_6_pv_8_1_3: t_A1_c_r[1,3] - y_A1_edge_pv_6_pv_8_3 >= 0
 t_activation_A1_pv_6_pv_8_2_3: t_A1_c_r[2,3] - y_A1_edge_pv_6_pv_8_3 >= 0
 logical_constraint_A1_pv_6_pv_8_i_index_minus_1_3: - t_eol_c_r[0,3]
   - t_A1_c_r[0,3] + y_A1_edge_pv_6_pv_8_3 <= 0
 logical_constraint_A1_pv_6_pv_8_j_index_3: - t_eol_c_r[3,3]
   - t_A1_c_r[3,3] + y_A1_edge_pv_6_pv_8_3 <= 0
 t_activation_A1_pv_6_pv_8_1_2: t_A1_c_r[1,2] - y_A1_edge_pv_6_pv_8_2 >= 0
 t_activation_A1_pv_6_pv_8_2_2: t_A1_c_r[2,2] - y_A1_edge_pv_6_pv_8_2 >= 0
 logical_constraint_A1_pv_6_pv_8_i_index_minus_1_2: - t_eol_c_r[0,2]
   - t_A1_c_r[0,2] + y_A1_edge_pv_6_pv_8_2 <= 0
 logical_constraint_A1_pv_6_pv_8_j_index_2: - t_eol_c_r[3,2]
   - t_A1_c_r[3,2] + y_A1_edge_pv_6_pv_8_2 <= 0
 t_activation_A1_nv_6_nv_8_1_1: t_A1_c_r[1,1] - y_A1_edge_nv_6_nv_8_1 >= 0
 t_activation_A1_nv_6_nv_8_2_1: t_A1_c_r[2,1] - y_A1_edge_nv_6_nv_8_1 >= 0
 logical_constraint_A1_nv_6_nv_8_i_index_minus_1_1: - t_eol_c_r[0,1]
   - t_A1_c_r[0,1] + y_A1_edge_nv_6_nv_8_1 <= 0
 logical_constraint_A1_nv_6_nv_8_j_index_1: - t_eol_c_r[3,1]
   - t_A1_c_r[3,1] + y_A1_edge_nv_6_nv_8_1 <= 0
 t_activation_A1_nv_6_nv_8_1_0: t_A1_c_r[1,0] - y_A1_edge_nv_6_nv_8_0 >= 0
 t_activation_A1_nv_6_nv_8_2_0: t_A1_c_r[2,0] - y_A1_edge_nv_6_nv_8_0 >= 0
 logical_constraint_A1_nv_6_nv_8_i_index_minus_1_0: - t_eol_c_r[0,0]
   - t_A1_c_r[0,0] + y_A1_edge_nv_6_nv_8_0 <= 0
 logical_constraint_A1_nv_6_nv_8_j_index_0: - t_eol_c_r[3,0]
   - t_A1_c_r[3,0] + y_A1_edge_nv_6_nv_8_0 <= 0
 t_activation_A1_pv_8_pv_9_1_3: t_A1_c_r[1,3] - y_A1_edge_pv_8_pv_9_3 >= 0
 t_activation_A1_pv_8_pv_9_2_3: t_A1_c_r[2,3] - y_A1_edge_pv_8_pv_9_3 >= 0
 logical_constraint_A1_pv_8_pv_9_i_index_minus_1_3: - t_eol_c_r[0,3]
   - t_A1_c_r[0,3] + y_A1_edge_pv_8_pv_9_3 <= 0
 logical_constraint_A1_pv_8_pv_9_j_index_3: - t_eol_c_r[3,3]
   - t_A1_c_r[3,3] + y_A1_edge_pv_8_pv_9_3 <= 0
 t_activation_A1_pv_8_pv_9_1_2: t_A1_c_r[1,2] - y_A1_edge_pv_8_pv_9_2 >= 0
 t_activation_A1_pv_8_pv_9_2_2: t_A1_c_r[2,2] - y_A1_edge_pv_8_pv_9_2 >= 0
 logical_constraint_A1_pv_8_pv_9_i_index_minus_1_2: - t_eol_c_r[0,2]
   - t_A1_c_r[0,2] + y_A1_edge_pv_8_pv_9_2 <= 0
 logical_constraint_A1_pv_8_pv_9_j_index_2: - t_eol_c_r[3,2]
   - t_A1_c_r[3,2] + y_A1_edge_pv_8_pv_9_2 <= 0
 t_activation_A1_nv_8_nv_9_1_1: t_A1_c_r[1,1] - y_A1_edge_nv_8_nv_9_1 >= 0
 t_activation_A1_nv_8_nv_9_2_1: t_A1_c_r[2,1] - y_A1_edge_nv_8_nv_9_1 >= 0
 logical_constraint_A1_nv_8_nv_9_i_index_minus_1_1: - t_eol_c_r[0,1]
   - t_A1_c_r[0,1] + y_A1_edge_nv_8_nv_9_1 <= 0
 logical_constraint_A1_nv_8_nv_9_j_index_1: - t_eol_c_r[3,1]
   - t_A1_c_r[3,1] + y_A1_edge_nv_8_nv_9_1 <= 0
 t_activation_A1_nv_8_nv_9_1_0: t_A1_c_r[1,0] - y_A1_edge_nv_8_nv_9_0 >= 0
 t_activation_A1_nv_8_nv_9_2_0: t_A1_c_r[2,0] - y_A1_edge_nv_8_nv_9_0 >= 0
 logical_constraint_A1_nv_8_nv_9_i_index_minus_1_0: - t_eol_c_r[0,0]
   - t_A1_c_r[0,0] + y_A1_edge_nv_8_nv_9_0 <= 0
 logical_constraint_A1_nv_8_nv_9_j_index_0: - t_eol_c_r[3,0]
   - t_A1_c_r[3,0] + y_A1_edge_nv_8_nv_9_0 <= 0
 t_activation_A1_pv_9_pv_12_2_3: t_A1_c_r[2,3] - y_A1_edge_pv_9_pv_12_3
   >= 0
 t_activation_A1_pv_9_pv_12_3_3: t_A1_c_r[3,3] - y_A1_edge_pv_9_pv_12_3
   >= 0
 logical_constraint_A1_pv_9_pv_12_i_index_minus_1_3: - t_eol_c_r[1,3]
   - t_A1_c_r[1,3] + y_A1_edge_pv_9_pv_12_3 <= 0
 logical_constraint_A1_pv_9_pv_12_j_index_3: - t_eol_c_r[4,3]
   - t_A1_c_r[4,3] + y_A1_edge_pv_9_pv_12_3 <= 0
 t_activation_A1_pv_9_pv_12_2_2: t_A1_c_r[2,2] - y_A1_edge_pv_9_pv_12_2
   >= 0
 t_activation_A1_pv_9_pv_12_3_2: t_A1_c_r[3,2] - y_A1_edge_pv_9_pv_12_2
   >= 0
 logical_constraint_A1_pv_9_pv_12_i_index_minus_1_2: - t_eol_c_r[1,2]
   - t_A1_c_r[1,2] + y_A1_edge_pv_9_pv_12_2 <= 0
 logical_constraint_A1_pv_9_pv_12_j_index_2: - t_eol_c_r[4,2]
   - t_A1_c_r[4,2] + y_A1_edge_pv_9_pv_12_2 <= 0
 t_activation_A1_nv_9_nv_12_2_1: t_A1_c_r[2,1] - y_A1_edge_nv_9_nv_12_1
   >= 0
 t_activation_A1_nv_9_nv_12_3_1: t_A1_c_r[3,1] - y_A1_edge_nv_9_nv_12_1
   >= 0
 logical_constraint_A1_nv_9_nv_12_i_index_minus_1_1: - t_eol_c_r[1,1]
   - t_A1_c_r[1,1] + y_A1_edge_nv_9_nv_12_1 <= 0
 logical_constraint_A1_nv_9_nv_12_j_index_1: - t_eol_c_r[4,1]
   - t_A1_c_r[4,1] + y_A1_edge_nv_9_nv_12_1 <= 0
 t_activation_A1_nv_9_nv_12_2_0: t_A1_c_r[2,0] - y_A1_edge_nv_9_nv_12_0
   >= 0
 t_activation_A1_nv_9_nv_12_3_0: t_A1_c_r[3,0] - y_A1_edge_nv_9_nv_12_0
   >= 0
 logical_constraint_A1_nv_9_nv_12_i_index_minus_1_0: - t_eol_c_r[1,0]
   - t_A1_c_r[1,0] + y_A1_edge_nv_9_nv_12_0 <= 0
 logical_constraint_A1_nv_9_nv_12_j_index_0: - t_eol_c_r[4,0]
   - t_A1_c_r[4,0] + y_A1_edge_nv_9_nv_12_0 <= 0
 t_activation_A1_pv_12_pv_15_3_3: t_A1_c_r[3,3] - y_A1_edge_pv_12_pv_15_3
   >= 0
 t_activation_A1_pv_12_pv_15_4_3: t_A1_c_r[4,3] - y_A1_edge_pv_12_pv_15_3
   >= 0
 logical_constraint_A1_pv_12_pv_15_i_index_minus_1_3: - t_eol_c_r[2,3]
   - t_A1_c_r[2,3] + y_A1_edge_pv_12_pv_15_3 <= 0
 t_activation_A1_pv_12_pv_15_3_2: t_A1_c_r[3,2] - y_A1_edge_pv_12_pv_15_2
   >= 0
 t_activation_A1_pv_12_pv_15_4_2: t_A1_c_r[4,2] - y_A1_edge_pv_12_pv_15_2
   >= 0
 logical_constraint_A1_pv_12_pv_15_i_index_minus_1_2: - t_eol_c_r[2,2]
   - t_A1_c_r[2,2] + y_A1_edge_pv_12_pv_15_2 <= 0
 t_activation_A1_nv_12_nv_15_3_1: t_A1_c_r[3,1] - y_A1_edge_nv_12_nv_15_1
   >= 0
 t_activation_A1_nv_12_nv_15_4_1: t_A1_c_r[4,1] - y_A1_edge_nv_12_nv_15_1
   >= 0
 logical_constraint_A1_nv_12_nv_15_i_index_minus_1_1: - t_eol_c_r[2,1]
   - t_A1_c_r[2,1] + y_A1_edge_nv_12_nv_15_1 <= 0
 t_activation_A1_nv_12_nv_15_3_0: t_A1_c_r[3,0] - y_A1_edge_nv_12_nv_15_0
   >= 0
 t_activation_A1_nv_12_nv_15_4_0: t_A1_c_r[4,0] - y_A1_edge_nv_12_nv_15_0
   >= 0
 logical_constraint_A1_nv_12_nv_15_i_index_minus_1_0: - t_eol_c_r[2,0]
   - t_A1_c_r[2,0] + y_A1_edge_nv_12_nv_15_0 <= 0
 t_activation_A1_m1_4_m1_8_0_7: ut_A1_c_r[0,7] - y_A1_edge_m1_4_m1_8_r_7
   >= 0
 t_activation_A1_m1_4_m1_8_1_7: ut_A1_c_r[1,7] - y_A1_edge_m1_4_m1_8_r_7
   >= 0
 t_activation_A1_m1_4_m1_8_2_7: ut_A1_c_r[2,7] - y_A1_edge_m1_4_m1_8_r_7
   >= 0
 logical_constraint_A1_m1_4_m1_8_j_index_7: - ut_eol_c_r[3,7]
   - ut_A1_c_r[3,7] + y_A1_edge_m1_4_m1_8_r_7 <= 0
 t_activation_A1_m1_4_m1_8_0_6: ut_A1_c_r[0,6] - y_A1_edge_m1_4_m1_8_r_6
   >= 0
 t_activation_A1_m1_4_m1_8_1_6: ut_A1_c_r[1,6] - y_A1_edge_m1_4_m1_8_r_6
   >= 0
 t_activation_A1_m1_4_m1_8_2_6: ut_A1_c_r[2,6] - y_A1_edge_m1_4_m1_8_r_6
   >= 0
 logical_constraint_A1_m1_4_m1_8_j_index_6: - ut_eol_c_r[3,6]
   - ut_A1_c_r[3,6] + y_A1_edge_m1_4_m1_8_r_6 <= 0
 t_activation_A1_m1_4_m1_8_0_5: ut_A1_c_r[0,5] - y_A1_edge_m1_4_m1_8_r_5
   >= 0
 t_activation_A1_m1_4_m1_8_1_5: ut_A1_c_r[1,5] - y_A1_edge_m1_4_m1_8_r_5
   >= 0
 t_activation_A1_m1_4_m1_8_2_5: ut_A1_c_r[2,5] - y_A1_edge_m1_4_m1_8_r_5
   >= 0
 logical_constraint_A1_m1_4_m1_8_j_index_5: - ut_eol_c_r[3,5]
   - ut_A1_c_r[3,5] + y_A1_edge_m1_4_m1_8_r_5 <= 0
 t_activation_A1_m1_4_m1_8_0_4: ut_A1_c_r[0,4] - y_A1_edge_m1_4_m1_8_r_4
   >= 0
 t_activation_A1_m1_4_m1_8_1_4: ut_A1_c_r[1,4] - y_A1_edge_m1_4_m1_8_r_4
   >= 0
 t_activation_A1_m1_4_m1_8_2_4: ut_A1_c_r[2,4] - y_A1_edge_m1_4_m1_8_r_4
   >= 0
 logical_constraint_A1_m1_4_m1_8_j_index_4: - ut_eol_c_r[3,4]
   - ut_A1_c_r[3,4] + y_A1_edge_m1_4_m1_8_r_4 <= 0
 t_activation_A1_m1_8_m1_12_1_7: ut_A1_c_r[1,7] - y_A1_edge_m1_8_m1_12_r_7
   >= 0
 t_activation_A1_m1_8_m1_12_2_7: ut_A1_c_r[2,7] - y_A1_edge_m1_8_m1_12_r_7
   >= 0
 t_activation_A1_m1_8_m1_12_3_7: ut_A1_c_r[3,7] - y_A1_edge_m1_8_m1_12_r_7
   >= 0
 logical_constraint_A1_m1_8_m1_12_i_index_minus_2_7: - ut_eol_c_r[0,7]
   - ut_A1_c_r[0,7] + y_A1_edge_m1_8_m1_12_r_7 <= 0
 logical_constraint_A1_m1_8_m1_12_j_index_7: - ut_eol_c_r[4,7]
   - ut_A1_c_r[4,7] + y_A1_edge_m1_8_m1_12_r_7 <= 0
 t_activation_A1_m1_8_m1_12_1_6: ut_A1_c_r[1,6] - y_A1_edge_m1_8_m1_12_r_6
   >= 0
 t_activation_A1_m1_8_m1_12_2_6: ut_A1_c_r[2,6] - y_A1_edge_m1_8_m1_12_r_6
   >= 0
 t_activation_A1_m1_8_m1_12_3_6: ut_A1_c_r[3,6] - y_A1_edge_m1_8_m1_12_r_6
   >= 0
 logical_constraint_A1_m1_8_m1_12_i_index_minus_2_6: - ut_eol_c_r[0,6]
   - ut_A1_c_r[0,6] + y_A1_edge_m1_8_m1_12_r_6 <= 0
 logical_constraint_A1_m1_8_m1_12_j_index_6: - ut_eol_c_r[4,6]
   - ut_A1_c_r[4,6] + y_A1_edge_m1_8_m1_12_r_6 <= 0
 t_activation_A1_m1_8_m1_12_1_5: ut_A1_c_r[1,5] - y_A1_edge_m1_8_m1_12_r_5
   >= 0
 t_activation_A1_m1_8_m1_12_2_5: ut_A1_c_r[2,5] - y_A1_edge_m1_8_m1_12_r_5
   >= 0
 t_activation_A1_m1_8_m1_12_3_5: ut_A1_c_r[3,5] - y_A1_edge_m1_8_m1_12_r_5
   >= 0
 logical_constraint_A1_m1_8_m1_12_i_index_minus_2_5: - ut_eol_c_r[0,5]
   - ut_A1_c_r[0,5] + y_A1_edge_m1_8_m1_12_r_5 <= 0
 logical_constraint_A1_m1_8_m1_12_j_index_5: - ut_eol_c_r[4,5]
   - ut_A1_c_r[4,5] + y_A1_edge_m1_8_m1_12_r_5 <= 0
 t_activation_A1_m1_8_m1_12_1_4: ut_A1_c_r[1,4] - y_A1_edge_m1_8_m1_12_r_4
   >= 0
 t_activation_A1_m1_8_m1_12_2_4: ut_A1_c_r[2,4] - y_A1_edge_m1_8_m1_12_r_4
   >= 0
 t_activation_A1_m1_8_m1_12_3_4: ut_A1_c_r[3,4] - y_A1_edge_m1_8_m1_12_r_4
   >= 0
 logical_constraint_A1_m1_8_m1_12_i_index_minus_2_4: - ut_eol_c_r[0,4]
   - ut_A1_c_r[0,4] + y_A1_edge_m1_8_m1_12_r_4 <= 0
 logical_constraint_A1_m1_8_m1_12_j_index_4: - ut_eol_c_r[4,4]
   - ut_A1_c_r[4,4] + y_A1_edge_m1_8_m1_12_r_4 <= 0
 flow_conservation_A1_ac_3: f_A1_edge_connector_pv_3_ac_3_co
   + f_A1_edge_connector_nv_3_ac_3_co - cap_A1_ac_3 = 0
 flow_conservation_A1_nn_3: f_A1_edge_connector_nv_3_nn_3_co - cap_A1_nn_3
   = 0
 middle_node_A1_nv_3: cap_A1_nv_3 = 0
 flow_conservation_A1_nv_3: - f_A1_edge_connector_nv_3_nn_3_co
   - f_A1_edge_connector_nv_3_ac_3_co - f_A1_edge_nv_3_nv_4_1
   - f_A1_edge_nv_3_nv_4_0 - cap_A1_nv_3 = 0
 flow_conservation_A1_pp_3: f_A1_edge_connector_pv_3_pp_3_co - cap_A1_pp_3
   = 0
 middle_node_A1_pv_3: cap_A1_pv_3 = 0
 flow_conservation_A1_pv_3: - f_A1_edge_connector_pv_3_pp_3_co
   - f_A1_edge_connector_pv_3_ac_3_co - f_A1_edge_pv_3_pv_4_3
   - f_A1_edge_pv_3_pv_4_2 - cap_A1_pv_3 = 0
 middle_node_A1_m1_4: cap_A1_m1_4 = 0
 flow_conservation_A1_m1_4: - f_A1_edge_via_enable_m1_4_pv_4
   - f_A1_edge_via_enable_m1_4_nv_4 - f_A1_edge_m1_4_m1_8_r_7
   - f_A1_edge_m1_4_m1_8_r_6 - f_A1_edge_m1_4_m1_8_r_5
   - f_A1_edge_m1_4_m1_8_r_4 - cap_A1_m1_4 = 0
 middle_node_A1_nv_4: cap_A1_nv_4 = 0
 flow_conservation_A1_nv_4: f_A1_edge_nv_3_nv_4_1 + f_A1_edge_nv_3_nv_4_0
   - f_A1_edge_nv_4_nv_6_1 - f_A1_edge_nv_4_nv_6_0
   + f_A1_edge_via_enable_m1_4_nv_4 - cap_A1_nv_4 = 0
 middle_node_A1_pv_4: cap_A1_pv_4 = 0
 flow_conservation_A1_pv_4: f_A1_edge_pv_3_pv_4_3 + f_A1_edge_pv_3_pv_4_2
   - f_A1_edge_pv_4_pv_6_3 - f_A1_edge_pv_4_pv_6_2
   + f_A1_edge_via_enable_m1_4_pv_4 - cap_A1_pv_4 = 0
 flow_conservation_A1_ac_6: f_A1_edge_connector_pv_6_ac_6_co
   + f_A1_edge_connector_nv_6_ac_6_co - cap_A1_ac_6 = 0
 flow_conservation_A1_nn_6: f_A1_edge_connector_nv_6_nn_6_co - cap_A1_nn_6
   = 0
 middle_node_A1_nv_6: cap_A1_nv_6 = 0
 flow_conservation_A1_nv_6: - f_A1_edge_connector_nv_6_nn_6_co
   - f_A1_edge_connector_nv_6_ac_6_co + f_A1_edge_nv_4_nv_6_1
   + f_A1_edge_nv_4_nv_6_0 - f_A1_edge_nv_6_nv_8_1 - f_A1_edge_nv_6_nv_8_0
   - cap_A1_nv_6 = 0
 flow_conservation_A1_pp_6: f_A1_edge_connector_pv_6_pp_6_co - cap_A1_pp_6
   = 0
 middle_node_A1_pv_6: cap_A1_pv_6 = 0
 flow_conservation_A1_pv_6: - f_A1_edge_connector_pv_6_pp_6_co
   - f_A1_edge_connector_pv_6_ac_6_co + f_A1_edge_pv_4_pv_6_3
   + f_A1_edge_pv_4_pv_6_2 - f_A1_edge_pv_6_pv_8_3 - f_A1_edge_pv_6_pv_8_2
   - cap_A1_pv_6 = 0
 middle_node_A1_m1_8: cap_A1_m1_8 = 0
 flow_conservation_A1_m1_8: f_A1_edge_m1_4_m1_8_r_7
   + f_A1_edge_m1_4_m1_8_r_6 + f_A1_edge_m1_4_m1_8_r_5
   + f_A1_edge_m1_4_m1_8_r_4 - f_A1_edge_via_enable_m1_8_pv_8
   - f_A1_edge_via_enable_m1_8_nv_8 - f_A1_edge_m1_8_m1_12_r_7
   - f_A1_edge_m1_8_m1_12_r_6 - f_A1_edge_m1_8_m1_12_r_5
   - f_A1_edge_m1_8_m1_12_r_4 - cap_A1_m1_8 = 0
 middle_node_A1_nv_8: cap_A1_nv_8 = 0
 flow_conservation_A1_nv_8: f_A1_edge_nv_6_nv_8_1 + f_A1_edge_nv_6_nv_8_0
   - f_A1_edge_nv_8_nv_9_1 - f_A1_edge_nv_8_nv_9_0
   + f_A1_edge_via_enable_m1_8_nv_8 - cap_A1_nv_8 = 0
 middle_node_A1_pv_8: cap_A1_pv_8 = 0
 flow_conservation_A1_pv_8: f_A1_edge_pv_6_pv_8_3 + f_A1_edge_pv_6_pv_8_2
   - f_A1_edge_pv_8_pv_9_3 - f_A1_edge_pv_8_pv_9_2
   + f_A1_edge_via_enable_m1_8_pv_8 - cap_A1_pv_8 = 0
 flow_conservation_A1_ac_9: f_A1_edge_connector_pv_9_ac_9_co
   + f_A1_edge_connector_nv_9_ac_9_co - cap_A1_ac_9 = 0
 flow_conservation_A1_nn_9: f_A1_edge_connector_nv_9_nn_9_co - cap_A1_nn_9
   = 0
 middle_node_A1_nv_9: cap_A1_nv_9 = 0
 flow_conservation_A1_nv_9: - f_A1_edge_connector_nv_9_nn_9_co
   - f_A1_edge_connector_nv_9_ac_9_co + f_A1_edge_nv_8_nv_9_1
   + f_A1_edge_nv_8_nv_9_0 - f_A1_edge_nv_9_nv_12_1
   - f_A1_edge_nv_9_nv_12_0 - cap_A1_nv_9 = 0
 flow_conservation_A1_pp_9: f_A1_edge_connector_pv_9_pp_9_co - cap_A1_pp_9
   = 0
 middle_node_A1_pv_9: cap_A1_pv_9 = 0
 flow_conservation_A1_pv_9: - f_A1_edge_connector_pv_9_pp_9_co
   - f_A1_edge_connector_pv_9_ac_9_co + f_A1_edge_pv_8_pv_9_3
   + f_A1_edge_pv_8_pv_9_2 - f_A1_edge_pv_9_pv_12_3
   - f_A1_edge_pv_9_pv_12_2 - cap_A1_pv_9 = 0
 flow_conservation_A1_ac_12: f_A1_edge_connector_pv_12_ac_12_co
   + f_A1_edge_connector_nv_12_ac_12_co - cap_A1_ac_12 = 0
 middle_node_A1_m1_12: cap_A1_m1_12 = 0
 flow_conservation_A1_m1_12: f_A1_edge_m1_8_m1_12_r_7
   + f_A1_edge_m1_8_m1_12_r_6 + f_A1_edge_m1_8_m1_12_r_5
   + f_A1_edge_m1_8_m1_12_r_4 - f_A1_edge_via_enable_m1_12_pv_12
   - f_A1_edge_via_enable_m1_12_nv_12 - cap_A1_m1_12 = 0
 flow_conservation_A1_nn_12: f_A1_edge_connector_nv_12_nn_12_co
   - cap_A1_nn_12 = 0
 middle_node_A1_nv_12: cap_A1_nv_12 = 0
 flow_conservation_A1_nv_12: - f_A1_edge_connector_nv_12_nn_12_co
   - f_A1_edge_connector_nv_12_ac_12_co + f_A1_edge_nv_9_nv_12_1
   + f_A1_edge_nv_9_nv_12_0 - f_A1_edge_nv_12_nv_15_1
   - f_A1_edge_nv_12_nv_15_0 + f_A1_edge_via_enable_m1_12_nv_12
   - cap_A1_nv_12 = 0
 flow_conservation_A1_pp_12: f_A1_edge_connector_pv_12_pp_12_co
   - cap_A1_pp_12 = 0
 middle_node_A1_pv_12: cap_A1_pv_12 = 0
 flow_conservation_A1_pv_12: - f_A1_edge_connector_pv_12_pp_12_co
   - f_A1_edge_connector_pv_12_ac_12_co + f_A1_edge_pv_9_pv_12_3
   + f_A1_edge_pv_9_pv_12_2 - f_A1_edge_pv_12_pv_15_3
   - f_A1_edge_pv_12_pv_15_2 + f_A1_edge_via_enable_m1_12_pv_12
   - cap_A1_pv_12 = 0
 flow_conservation_A1_ac_15: f_A1_edge_connector_pv_15_ac_15_co
   + f_A1_edge_connector_nv_15_ac_15_co - cap_A1_ac_15 = 0
 flow_conservation_A1_nn_15: f_A1_edge_connector_nv_15_nn_15_co
   - cap_A1_nn_15 = 0
 middle_node_A1_nv_15: cap_A1_nv_15 = 0
 flow_conservation_A1_nv_15: - f_A1_edge_connector_nv_15_nn_15_co
   - f_A1_edge_connector_nv_15_ac_15_co + f_A1_edge_nv_12_nv_15_1
   + f_A1_edge_nv_12_nv_15_0 - cap_A1_nv_15 = 0
 flow_conservation_A1_pp_15: f_A1_edge_connector_pv_15_pp_15_co
   - cap_A1_pp_15 = 0
 middle_node_A1_pv_15: cap_A1_pv_15 = 0
 flow_conservation_A1_pv_15: - f_A1_edge_connector_pv_15_pp_15_co
   - f_A1_edge_connector_pv_15_ac_15_co + f_A1_edge_pv_12_pv_15_3
   + f_A1_edge_pv_12_pv_15_2 - cap_A1_pv_15 = 0
 root_find_ZN_pp_3: indicator_ZN_pp_3 - root_node_ZN_pp_3 >= 0
 root_find_ZN_nn_3: indicator_ZN_nn_3 - root_node_ZN_nn_3 >= 0
 root_find_ZN_ac_3: indicator_ZN_ac_3 - root_node_ZN_ac_3 >= 0
 max_indicator_find_ZN_pp_3: indicator_ZN_pp_3 - max_indicator_ZN_pp_3
   >= 0
 max_indicator_find_ZN_nn_3: indicator_ZN_nn_3 - max_indicator_ZN_nn_3
   >= 0
 max_indicator_find_ZN_ac_3: indicator_ZN_ac_3 - max_indicator_ZN_ac_3
   >= 0
 lower_bound_ZN_ac_3: - pmos_net_ZN_c0 - nmos_net_ZN_c0 + indicator_ZN_ac_3
   >= -1
 upper_bound_v1_ZN_ac_3: - pmos_net_ZN_c0 + indicator_ZN_ac_3 <= 0
 upper_bound_v2_ZN_ac_3: - nmos_net_ZN_c0 + indicator_ZN_ac_3 <= 0
 combined_net_ZN_pp_3: - pmos_net_ZN_c0 + indicator_ZN_pp_3
   + indicator_ZN_ac_3 = 0
 combined_net_ZN_nn_3: - nmos_net_ZN_c0 + indicator_ZN_nn_3
   + indicator_ZN_ac_3 = 0
 min_indicator_constr_p_ZN_0: min_indicator_ZN + 5 indicator_ZN_pp_3 <= 5
 min_indicator_constr_n_ZN_0: min_indicator_ZN + 5 indicator_ZN_nn_3 <= 5
 min_indicator_constr_a_ZN_0: min_indicator_ZN + 5 indicator_ZN_ac_3 <= 5
 root_node_match_p_ZN_0: - min_indicator_ZN <= 0
 root_node_match_n_ZN_0: - min_indicator_ZN <= 0
 root_node_match_a_ZN_0: - min_indicator_ZN <= 0
 max_bbox_constr_p_ZN_0: max_bbox_ZN - 5 indicator_ZN_pp_3 >= -5
 max_bbox_constr_n_ZN_0: max_bbox_ZN - 5 indicator_ZN_nn_3 >= -5
 max_bbox_constr_a_ZN_0: max_bbox_ZN - 5 indicator_ZN_ac_3 >= -5
 max_indicator_match_p_ZN_0: - max_bbox_ZN - 4 max_indicator_ZN_pp_3 >= -4
 max_indicator_match_n_ZN_0: - max_bbox_ZN - 4 max_indicator_ZN_nn_3 >= -4
 max_indicator_match_a_ZN_0: - max_bbox_ZN - 4 max_indicator_ZN_ac_3 >= -4
 root_find_ZN_pp_6: indicator_ZN_pp_6 - root_node_ZN_pp_6 >= 0
 root_find_ZN_nn_6: indicator_ZN_nn_6 - root_node_ZN_nn_6 >= 0
 root_find_ZN_ac_6: indicator_ZN_ac_6 - root_node_ZN_ac_6 >= 0
 max_indicator_find_ZN_pp_6: indicator_ZN_pp_6 - max_indicator_ZN_pp_6
   >= 0
 max_indicator_find_ZN_nn_6: indicator_ZN_nn_6 - max_indicator_ZN_nn_6
   >= 0
 max_indicator_find_ZN_ac_6: indicator_ZN_ac_6 - max_indicator_ZN_ac_6
   >= 0
 lower_bound_ZN_ac_6: - pmos_net_ZN_c1 - nmos_net_ZN_c1 + indicator_ZN_ac_6
   >= -1
 upper_bound_v1_ZN_ac_6: - pmos_net_ZN_c1 + indicator_ZN_ac_6 <= 0
 upper_bound_v2_ZN_ac_6: - nmos_net_ZN_c1 + indicator_ZN_ac_6 <= 0
 combined_net_ZN_pp_6: - pmos_net_ZN_c1 + indicator_ZN_pp_6
   + indicator_ZN_ac_6 = 0
 combined_net_ZN_nn_6: - nmos_net_ZN_c1 + indicator_ZN_nn_6
   + indicator_ZN_ac_6 = 0
 min_indicator_constr_p_ZN_1: min_indicator_ZN + 5 indicator_ZN_pp_6 <= 6
 min_indicator_constr_n_ZN_1: min_indicator_ZN + 5 indicator_ZN_nn_6 <= 6
 min_indicator_constr_a_ZN_1: min_indicator_ZN + 5 indicator_ZN_ac_6 <= 6
 root_node_match_p_ZN_1: - min_indicator_ZN + root_node_ZN_pp_6 <= 0
 root_node_match_n_ZN_1: - min_indicator_ZN + root_node_ZN_nn_6 <= 0
 root_node_match_a_ZN_1: - min_indicator_ZN + root_node_ZN_ac_6 <= 0
 max_bbox_constr_p_ZN_1: max_bbox_ZN - 5 indicator_ZN_pp_6 >= -4
 max_bbox_constr_n_ZN_1: max_bbox_ZN - 5 indicator_ZN_nn_6 >= -4
 max_bbox_constr_a_ZN_1: max_bbox_ZN - 5 indicator_ZN_ac_6 >= -4
 max_indicator_match_p_ZN_1: - max_bbox_ZN - 3 max_indicator_ZN_pp_6 >= -4
 max_indicator_match_n_ZN_1: - max_bbox_ZN - 3 max_indicator_ZN_nn_6 >= -4
 max_indicator_match_a_ZN_1: - max_bbox_ZN - 3 max_indicator_ZN_ac_6 >= -4
 root_find_ZN_pp_9: indicator_ZN_pp_9 - root_node_ZN_pp_9 >= 0
 root_find_ZN_nn_9: indicator_ZN_nn_9 - root_node_ZN_nn_9 >= 0
 root_find_ZN_ac_9: indicator_ZN_ac_9 - root_node_ZN_ac_9 >= 0
 max_indicator_find_ZN_pp_9: indicator_ZN_pp_9 - max_indicator_ZN_pp_9
   >= 0
 max_indicator_find_ZN_nn_9: indicator_ZN_nn_9 - max_indicator_ZN_nn_9
   >= 0
 max_indicator_find_ZN_ac_9: indicator_ZN_ac_9 - max_indicator_ZN_ac_9
   >= 0
 lower_bound_ZN_ac_9: - pmos_net_ZN_c2 - nmos_net_ZN_c2 + indicator_ZN_ac_9
   >= -1
 upper_bound_v1_ZN_ac_9: - pmos_net_ZN_c2 + indicator_ZN_ac_9 <= 0
 upper_bound_v2_ZN_ac_9: - nmos_net_ZN_c2 + indicator_ZN_ac_9 <= 0
 combined_net_ZN_pp_9: - pmos_net_ZN_c2 + indicator_ZN_pp_9
   + indicator_ZN_ac_9 = 0
 combined_net_ZN_nn_9: - nmos_net_ZN_c2 + indicator_ZN_nn_9
   + indicator_ZN_ac_9 = 0
 min_indicator_constr_p_ZN_2: min_indicator_ZN + 5 indicator_ZN_pp_9 <= 7
 min_indicator_constr_n_ZN_2: min_indicator_ZN + 5 indicator_ZN_nn_9 <= 7
 min_indicator_constr_a_ZN_2: min_indicator_ZN + 5 indicator_ZN_ac_9 <= 7
 root_node_match_p_ZN_2: - min_indicator_ZN + 2 root_node_ZN_pp_9 <= 0
 root_node_match_n_ZN_2: - min_indicator_ZN + 2 root_node_ZN_nn_9 <= 0
 root_node_match_a_ZN_2: - min_indicator_ZN + 2 root_node_ZN_ac_9 <= 0
 max_bbox_constr_p_ZN_2: max_bbox_ZN - 5 indicator_ZN_pp_9 >= -3
 max_bbox_constr_n_ZN_2: max_bbox_ZN - 5 indicator_ZN_nn_9 >= -3
 max_bbox_constr_a_ZN_2: max_bbox_ZN - 5 indicator_ZN_ac_9 >= -3
 max_indicator_match_p_ZN_2: - max_bbox_ZN - 2 max_indicator_ZN_pp_9 >= -4
 max_indicator_match_n_ZN_2: - max_bbox_ZN - 2 max_indicator_ZN_nn_9 >= -4
 max_indicator_match_a_ZN_2: - max_bbox_ZN - 2 max_indicator_ZN_ac_9 >= -4
 root_find_ZN_pp_12: indicator_ZN_pp_12 - root_node_ZN_pp_12 >= 0
 root_find_ZN_nn_12: indicator_ZN_nn_12 - root_node_ZN_nn_12 >= 0
 root_find_ZN_ac_12: indicator_ZN_ac_12 - root_node_ZN_ac_12 >= 0
 max_indicator_find_ZN_pp_12: indicator_ZN_pp_12 - max_indicator_ZN_pp_12
   >= 0
 max_indicator_find_ZN_nn_12: indicator_ZN_nn_12 - max_indicator_ZN_nn_12
   >= 0
 max_indicator_find_ZN_ac_12: indicator_ZN_ac_12 - max_indicator_ZN_ac_12
   >= 0
 lower_bound_ZN_ac_12: - pmos_net_ZN_c3 - nmos_net_ZN_c3
   + indicator_ZN_ac_12 >= -1
 upper_bound_v1_ZN_ac_12: - pmos_net_ZN_c3 + indicator_ZN_ac_12 <= 0
 upper_bound_v2_ZN_ac_12: - nmos_net_ZN_c3 + indicator_ZN_ac_12 <= 0
 combined_net_ZN_pp_12: - pmos_net_ZN_c3 + indicator_ZN_pp_12
   + indicator_ZN_ac_12 = 0
 combined_net_ZN_nn_12: - nmos_net_ZN_c3 + indicator_ZN_nn_12
   + indicator_ZN_ac_12 = 0
 min_indicator_constr_p_ZN_3: min_indicator_ZN + 5 indicator_ZN_pp_12 <= 8
 min_indicator_constr_n_ZN_3: min_indicator_ZN + 5 indicator_ZN_nn_12 <= 8
 min_indicator_constr_a_ZN_3: min_indicator_ZN + 5 indicator_ZN_ac_12 <= 8
 root_node_match_p_ZN_3: - min_indicator_ZN + 3 root_node_ZN_pp_12 <= 0
 root_node_match_n_ZN_3: - min_indicator_ZN + 3 root_node_ZN_nn_12 <= 0
 root_node_match_a_ZN_3: - min_indicator_ZN + 3 root_node_ZN_ac_12 <= 0
 max_bbox_constr_p_ZN_3: max_bbox_ZN - 5 indicator_ZN_pp_12 >= -2
 max_bbox_constr_n_ZN_3: max_bbox_ZN - 5 indicator_ZN_nn_12 >= -2
 max_bbox_constr_a_ZN_3: max_bbox_ZN - 5 indicator_ZN_ac_12 >= -2
 max_indicator_match_p_ZN_3: - max_bbox_ZN - max_indicator_ZN_pp_12 >= -4
 max_indicator_match_n_ZN_3: - max_bbox_ZN - max_indicator_ZN_nn_12 >= -4
 max_indicator_match_a_ZN_3: - max_bbox_ZN - max_indicator_ZN_ac_12 >= -4
 root_find_ZN_pp_15: indicator_ZN_pp_15 - root_node_ZN_pp_15 >= 0
 root_find_ZN_nn_15: indicator_ZN_nn_15 - root_node_ZN_nn_15 >= 0
 root_find_ZN_ac_15: indicator_ZN_ac_15 - root_node_ZN_ac_15 >= 0
 max_indicator_find_ZN_pp_15: indicator_ZN_pp_15 - max_indicator_ZN_pp_15
   >= 0
 max_indicator_find_ZN_nn_15: indicator_ZN_nn_15 - max_indicator_ZN_nn_15
   >= 0
 max_indicator_find_ZN_ac_15: indicator_ZN_ac_15 - max_indicator_ZN_ac_15
   >= 0
 lower_bound_ZN_ac_15: - pmos_net_ZN_c4 - nmos_net_ZN_c4
   + indicator_ZN_ac_15 >= -1
 upper_bound_v1_ZN_ac_15: - pmos_net_ZN_c4 + indicator_ZN_ac_15 <= 0
 upper_bound_v2_ZN_ac_15: - nmos_net_ZN_c4 + indicator_ZN_ac_15 <= 0
 combined_net_ZN_pp_15: - pmos_net_ZN_c4 + indicator_ZN_pp_15
   + indicator_ZN_ac_15 = 0
 combined_net_ZN_nn_15: - nmos_net_ZN_c4 + indicator_ZN_nn_15
   + indicator_ZN_ac_15 = 0
 min_indicator_constr_p_ZN_4: min_indicator_ZN + 5 indicator_ZN_pp_15 <= 9
 min_indicator_constr_n_ZN_4: min_indicator_ZN + 5 indicator_ZN_nn_15 <= 9
 min_indicator_constr_a_ZN_4: min_indicator_ZN + 5 indicator_ZN_ac_15 <= 9
 root_node_match_p_ZN_4: - min_indicator_ZN + 4 root_node_ZN_pp_15 <= 0
 root_node_match_n_ZN_4: - min_indicator_ZN + 4 root_node_ZN_nn_15 <= 0
 root_node_match_a_ZN_4: - min_indicator_ZN + 4 root_node_ZN_ac_15 <= 0
 max_bbox_constr_p_ZN_4: max_bbox_ZN - 5 indicator_ZN_pp_15 >= -1
 max_bbox_constr_n_ZN_4: max_bbox_ZN - 5 indicator_ZN_nn_15 >= -1
 max_bbox_constr_a_ZN_4: max_bbox_ZN - 5 indicator_ZN_ac_15 >= -1
 max_indicator_match_p_ZN_4: - max_bbox_ZN >= -4
 max_indicator_match_n_ZN_4: - max_bbox_ZN >= -4
 max_indicator_match_a_ZN_4: - max_bbox_ZN >= -4
 one_root_node_enable_ZN: root_node_ZN_pp_3 + root_node_ZN_nn_3
   + root_node_ZN_ac_3 + root_node_ZN_pp_6 + root_node_ZN_nn_6
   + root_node_ZN_ac_6 + root_node_ZN_pp_9 + root_node_ZN_nn_9
   + root_node_ZN_ac_9 + root_node_ZN_pp_12 + root_node_ZN_nn_12
   + root_node_ZN_ac_12 + root_node_ZN_pp_15 + root_node_ZN_nn_15
   + root_node_ZN_ac_15 = 1
 one_max_indicator_enable_ZN: max_indicator_ZN_pp_3 + max_indicator_ZN_nn_3
   + max_indicator_ZN_ac_3 + max_indicator_ZN_pp_6 + max_indicator_ZN_nn_6
   + max_indicator_ZN_ac_6 + max_indicator_ZN_pp_9 + max_indicator_ZN_nn_9
   + max_indicator_ZN_ac_9 + max_indicator_ZN_pp_12
   + max_indicator_ZN_nn_12 + max_indicator_ZN_ac_12
   + max_indicator_ZN_pp_15 + max_indicator_ZN_nn_15
   + max_indicator_ZN_ac_15 = 1
 y_detector_dtermine_lb_ZN_nv_12: - indicator_ZN_pp_3 - indicator_ZN_nn_3
   - indicator_ZN_ac_3 - indicator_ZN_pp_6 - indicator_ZN_nn_6
   - indicator_ZN_ac_6 - indicator_ZN_pp_9 - indicator_ZN_nn_9
   - indicator_ZN_ac_9 - indicator_ZN_pp_12 - indicator_ZN_nn_12
   - indicator_ZN_ac_12 - indicator_ZN_pp_15 - indicator_ZN_nn_15
   - indicator_ZN_ac_15 + 5 io_detector_ZN >= 0
 y_detector_dtermine_ub_ZN_nv_12: - indicator_ZN_pp_3 - indicator_ZN_nn_3
   - indicator_ZN_ac_3 - indicator_ZN_pp_6 - indicator_ZN_nn_6
   - indicator_ZN_ac_6 - indicator_ZN_pp_9 - indicator_ZN_nn_9
   - indicator_ZN_ac_9 - indicator_ZN_pp_12 - indicator_ZN_nn_12
   - indicator_ZN_ac_12 - indicator_ZN_pp_15 - indicator_ZN_nn_15
   - indicator_ZN_ac_15 + io_detector_ZN <= 0
 on_off_constraint_by_indicator_ZN_pv_3_pp_3_co: - indicator_ZN_pp_3
   + y_ZN_edge_connector_pv_3_pp_3_co <= 0
 on_off_constraint_by_sum_actives_ZN_pv_3_pp_3_co: - io_detector_ZN
   + y_ZN_edge_connector_pv_3_pp_3_co <= 0
 on_off_constraint_by_mixing_ZN_pv_3_pp_3_co: - indicator_ZN_pp_3
   - io_detector_ZN + y_ZN_edge_connector_pv_3_pp_3_co >= -1
 edge_flow_ub_ZN_pv_3_pp_3_ve: - 2 y_ZN_edge_connector_pv_3_pp_3_co
   + f_ZN_edge_connector_pv_3_pp_3_co <= 0
 edge_flow_lb_ZN_pv_3_pp_3_ve: 2 y_ZN_edge_connector_pv_3_pp_3_co
   + f_ZN_edge_connector_pv_3_pp_3_co >= 0
 on_off_constraint_by_indicator_ZN_pv_3_ac_3_co: - indicator_ZN_ac_3
   + y_ZN_edge_connector_pv_3_ac_3_co <= 0
 on_off_constraint_by_sum_actives_ZN_pv_3_ac_3_co: - io_detector_ZN
   + y_ZN_edge_connector_pv_3_ac_3_co <= 0
 on_off_constraint_by_mixing_ZN_pv_3_ac_3_co: - indicator_ZN_ac_3
   - io_detector_ZN + y_ZN_edge_connector_pv_3_ac_3_co >= -1
 edge_flow_ub_ZN_pv_3_ac_3_ve: - 2 y_ZN_edge_connector_pv_3_ac_3_co
   + f_ZN_edge_connector_pv_3_ac_3_co <= 0
 edge_flow_lb_ZN_pv_3_ac_3_ve: 2 y_ZN_edge_connector_pv_3_ac_3_co
   + f_ZN_edge_connector_pv_3_ac_3_co >= 0
 on_off_constraint_by_indicator_ZN_nv_3_nn_3_co: - indicator_ZN_nn_3
   + y_ZN_edge_connector_nv_3_nn_3_co <= 0
 on_off_constraint_by_sum_actives_ZN_nv_3_nn_3_co: - io_detector_ZN
   + y_ZN_edge_connector_nv_3_nn_3_co <= 0
 on_off_constraint_by_mixing_ZN_nv_3_nn_3_co: - indicator_ZN_nn_3
   - io_detector_ZN + y_ZN_edge_connector_nv_3_nn_3_co >= -1
 edge_flow_ub_ZN_nv_3_nn_3_ve: - 2 y_ZN_edge_connector_nv_3_nn_3_co
   + f_ZN_edge_connector_nv_3_nn_3_co <= 0
 edge_flow_lb_ZN_nv_3_nn_3_ve: 2 y_ZN_edge_connector_nv_3_nn_3_co
   + f_ZN_edge_connector_nv_3_nn_3_co >= 0
 on_off_constraint_by_indicator_ZN_nv_3_ac_3_co: - indicator_ZN_ac_3
   + y_ZN_edge_connector_nv_3_ac_3_co <= 0
 on_off_constraint_by_sum_actives_ZN_nv_3_ac_3_co: - io_detector_ZN
   + y_ZN_edge_connector_nv_3_ac_3_co <= 0
 on_off_constraint_by_mixing_ZN_nv_3_ac_3_co: - indicator_ZN_ac_3
   - io_detector_ZN + y_ZN_edge_connector_nv_3_ac_3_co >= -1
 edge_flow_ub_ZN_nv_3_ac_3_ve: - 2 y_ZN_edge_connector_nv_3_ac_3_co
   + f_ZN_edge_connector_nv_3_ac_3_co <= 0
 edge_flow_lb_ZN_nv_3_ac_3_ve: 2 y_ZN_edge_connector_nv_3_ac_3_co
   + f_ZN_edge_connector_nv_3_ac_3_co >= 0
 on_off_constraint_by_indicator_ZN_pv_6_pp_6_co: - indicator_ZN_pp_6
   + y_ZN_edge_connector_pv_6_pp_6_co <= 0
 on_off_constraint_by_sum_actives_ZN_pv_6_pp_6_co: - io_detector_ZN
   + y_ZN_edge_connector_pv_6_pp_6_co <= 0
 on_off_constraint_by_mixing_ZN_pv_6_pp_6_co: - indicator_ZN_pp_6
   - io_detector_ZN + y_ZN_edge_connector_pv_6_pp_6_co >= -1
 edge_flow_ub_ZN_pv_6_pp_6_ve: - 2 y_ZN_edge_connector_pv_6_pp_6_co
   + f_ZN_edge_connector_pv_6_pp_6_co <= 0
 edge_flow_lb_ZN_pv_6_pp_6_ve: 2 y_ZN_edge_connector_pv_6_pp_6_co
   + f_ZN_edge_connector_pv_6_pp_6_co >= 0
 on_off_constraint_by_indicator_ZN_pv_6_ac_6_co: - indicator_ZN_ac_6
   + y_ZN_edge_connector_pv_6_ac_6_co <= 0
 on_off_constraint_by_sum_actives_ZN_pv_6_ac_6_co: - io_detector_ZN
   + y_ZN_edge_connector_pv_6_ac_6_co <= 0
 on_off_constraint_by_mixing_ZN_pv_6_ac_6_co: - indicator_ZN_ac_6
   - io_detector_ZN + y_ZN_edge_connector_pv_6_ac_6_co >= -1
 edge_flow_ub_ZN_pv_6_ac_6_ve: - 2 y_ZN_edge_connector_pv_6_ac_6_co
   + f_ZN_edge_connector_pv_6_ac_6_co <= 0
 edge_flow_lb_ZN_pv_6_ac_6_ve: 2 y_ZN_edge_connector_pv_6_ac_6_co
   + f_ZN_edge_connector_pv_6_ac_6_co >= 0
 on_off_constraint_by_indicator_ZN_nv_6_nn_6_co: - indicator_ZN_nn_6
   + y_ZN_edge_connector_nv_6_nn_6_co <= 0
 on_off_constraint_by_sum_actives_ZN_nv_6_nn_6_co: - io_detector_ZN
   + y_ZN_edge_connector_nv_6_nn_6_co <= 0
 on_off_constraint_by_mixing_ZN_nv_6_nn_6_co: - indicator_ZN_nn_6
   - io_detector_ZN + y_ZN_edge_connector_nv_6_nn_6_co >= -1
 edge_flow_ub_ZN_nv_6_nn_6_ve: - 2 y_ZN_edge_connector_nv_6_nn_6_co
   + f_ZN_edge_connector_nv_6_nn_6_co <= 0
 edge_flow_lb_ZN_nv_6_nn_6_ve: 2 y_ZN_edge_connector_nv_6_nn_6_co
   + f_ZN_edge_connector_nv_6_nn_6_co >= 0
 on_off_constraint_by_indicator_ZN_nv_6_ac_6_co: - indicator_ZN_ac_6
   + y_ZN_edge_connector_nv_6_ac_6_co <= 0
 on_off_constraint_by_sum_actives_ZN_nv_6_ac_6_co: - io_detector_ZN
   + y_ZN_edge_connector_nv_6_ac_6_co <= 0
 on_off_constraint_by_mixing_ZN_nv_6_ac_6_co: - indicator_ZN_ac_6
   - io_detector_ZN + y_ZN_edge_connector_nv_6_ac_6_co >= -1
 edge_flow_ub_ZN_nv_6_ac_6_ve: - 2 y_ZN_edge_connector_nv_6_ac_6_co
   + f_ZN_edge_connector_nv_6_ac_6_co <= 0
 edge_flow_lb_ZN_nv_6_ac_6_ve: 2 y_ZN_edge_connector_nv_6_ac_6_co
   + f_ZN_edge_connector_nv_6_ac_6_co >= 0
 on_off_constraint_by_indicator_ZN_pv_9_pp_9_co: - indicator_ZN_pp_9
   + y_ZN_edge_connector_pv_9_pp_9_co <= 0
 on_off_constraint_by_sum_actives_ZN_pv_9_pp_9_co: - io_detector_ZN
   + y_ZN_edge_connector_pv_9_pp_9_co <= 0
 on_off_constraint_by_mixing_ZN_pv_9_pp_9_co: - indicator_ZN_pp_9
   - io_detector_ZN + y_ZN_edge_connector_pv_9_pp_9_co >= -1
 edge_flow_ub_ZN_pv_9_pp_9_ve: - 2 y_ZN_edge_connector_pv_9_pp_9_co
   + f_ZN_edge_connector_pv_9_pp_9_co <= 0
 edge_flow_lb_ZN_pv_9_pp_9_ve: 2 y_ZN_edge_connector_pv_9_pp_9_co
   + f_ZN_edge_connector_pv_9_pp_9_co >= 0
 on_off_constraint_by_indicator_ZN_pv_9_ac_9_co: - indicator_ZN_ac_9
   + y_ZN_edge_connector_pv_9_ac_9_co <= 0
 on_off_constraint_by_sum_actives_ZN_pv_9_ac_9_co: - io_detector_ZN
   + y_ZN_edge_connector_pv_9_ac_9_co <= 0
 on_off_constraint_by_mixing_ZN_pv_9_ac_9_co: - indicator_ZN_ac_9
   - io_detector_ZN + y_ZN_edge_connector_pv_9_ac_9_co >= -1
 edge_flow_ub_ZN_pv_9_ac_9_ve: - 2 y_ZN_edge_connector_pv_9_ac_9_co
   + f_ZN_edge_connector_pv_9_ac_9_co <= 0
 edge_flow_lb_ZN_pv_9_ac_9_ve: 2 y_ZN_edge_connector_pv_9_ac_9_co
   + f_ZN_edge_connector_pv_9_ac_9_co >= 0
 on_off_constraint_by_indicator_ZN_nv_9_nn_9_co: - indicator_ZN_nn_9
   + y_ZN_edge_connector_nv_9_nn_9_co <= 0
 on_off_constraint_by_sum_actives_ZN_nv_9_nn_9_co: - io_detector_ZN
   + y_ZN_edge_connector_nv_9_nn_9_co <= 0
 on_off_constraint_by_mixing_ZN_nv_9_nn_9_co: - indicator_ZN_nn_9
   - io_detector_ZN + y_ZN_edge_connector_nv_9_nn_9_co >= -1
 edge_flow_ub_ZN_nv_9_nn_9_ve: - 2 y_ZN_edge_connector_nv_9_nn_9_co
   + f_ZN_edge_connector_nv_9_nn_9_co <= 0
 edge_flow_lb_ZN_nv_9_nn_9_ve: 2 y_ZN_edge_connector_nv_9_nn_9_co
   + f_ZN_edge_connector_nv_9_nn_9_co >= 0
 on_off_constraint_by_indicator_ZN_nv_9_ac_9_co: - indicator_ZN_ac_9
   + y_ZN_edge_connector_nv_9_ac_9_co <= 0
 on_off_constraint_by_sum_actives_ZN_nv_9_ac_9_co: - io_detector_ZN
   + y_ZN_edge_connector_nv_9_ac_9_co <= 0
 on_off_constraint_by_mixing_ZN_nv_9_ac_9_co: - indicator_ZN_ac_9
   - io_detector_ZN + y_ZN_edge_connector_nv_9_ac_9_co >= -1
 edge_flow_ub_ZN_nv_9_ac_9_ve: - 2 y_ZN_edge_connector_nv_9_ac_9_co
   + f_ZN_edge_connector_nv_9_ac_9_co <= 0
 edge_flow_lb_ZN_nv_9_ac_9_ve: 2 y_ZN_edge_connector_nv_9_ac_9_co
   + f_ZN_edge_connector_nv_9_ac_9_co >= 0
 on_off_constraint_by_indicator_ZN_pv_12_pp_12_co: - indicator_ZN_pp_12
   + y_ZN_edge_connector_pv_12_pp_12_co <= 0
 on_off_constraint_by_sum_actives_ZN_pv_12_pp_12_co: - io_detector_ZN
   + y_ZN_edge_connector_pv_12_pp_12_co <= 0
 on_off_constraint_by_mixing_ZN_pv_12_pp_12_co: - indicator_ZN_pp_12
   - io_detector_ZN + y_ZN_edge_connector_pv_12_pp_12_co >= -1
 edge_flow_ub_ZN_pv_12_pp_12_ve: - 2 y_ZN_edge_connector_pv_12_pp_12_co
   + f_ZN_edge_connector_pv_12_pp_12_co <= 0
 edge_flow_lb_ZN_pv_12_pp_12_ve: 2 y_ZN_edge_connector_pv_12_pp_12_co
   + f_ZN_edge_connector_pv_12_pp_12_co >= 0
 on_off_constraint_by_indicator_ZN_pv_12_ac_12_co: - indicator_ZN_ac_12
   + y_ZN_edge_connector_pv_12_ac_12_co <= 0
 on_off_constraint_by_sum_actives_ZN_pv_12_ac_12_co: - io_detector_ZN
   + y_ZN_edge_connector_pv_12_ac_12_co <= 0
 on_off_constraint_by_mixing_ZN_pv_12_ac_12_co: - indicator_ZN_ac_12
   - io_detector_ZN + y_ZN_edge_connector_pv_12_ac_12_co >= -1
 edge_flow_ub_ZN_pv_12_ac_12_ve: - 2 y_ZN_edge_connector_pv_12_ac_12_co
   + f_ZN_edge_connector_pv_12_ac_12_co <= 0
 edge_flow_lb_ZN_pv_12_ac_12_ve: 2 y_ZN_edge_connector_pv_12_ac_12_co
   + f_ZN_edge_connector_pv_12_ac_12_co >= 0
 on_off_constraint_by_indicator_ZN_nv_12_nn_12_co: - indicator_ZN_nn_12
   + y_ZN_edge_connector_nv_12_nn_12_co <= 0
 on_off_constraint_by_sum_actives_ZN_nv_12_nn_12_co: - io_detector_ZN
   + y_ZN_edge_connector_nv_12_nn_12_co <= 0
 on_off_constraint_by_mixing_ZN_nv_12_nn_12_co: - indicator_ZN_nn_12
   - io_detector_ZN + y_ZN_edge_connector_nv_12_nn_12_co >= -1
 edge_flow_ub_ZN_nv_12_nn_12_ve: - 2 y_ZN_edge_connector_nv_12_nn_12_co
   + f_ZN_edge_connector_nv_12_nn_12_co <= 0
 edge_flow_lb_ZN_nv_12_nn_12_ve: 2 y_ZN_edge_connector_nv_12_nn_12_co
   + f_ZN_edge_connector_nv_12_nn_12_co >= 0
 on_off_constraint_by_indicator_ZN_nv_12_ac_12_co: - indicator_ZN_ac_12
   + y_ZN_edge_connector_nv_12_ac_12_co <= 0
 on_off_constraint_by_sum_actives_ZN_nv_12_ac_12_co: - io_detector_ZN
   + y_ZN_edge_connector_nv_12_ac_12_co <= 0
 on_off_constraint_by_mixing_ZN_nv_12_ac_12_co: - indicator_ZN_ac_12
   - io_detector_ZN + y_ZN_edge_connector_nv_12_ac_12_co >= -1
 edge_flow_ub_ZN_nv_12_ac_12_ve: - 2 y_ZN_edge_connector_nv_12_ac_12_co
   + f_ZN_edge_connector_nv_12_ac_12_co <= 0
 edge_flow_lb_ZN_nv_12_ac_12_ve: 2 y_ZN_edge_connector_nv_12_ac_12_co
   + f_ZN_edge_connector_nv_12_ac_12_co >= 0
 on_off_constraint_by_indicator_ZN_pv_15_pp_15_co: - indicator_ZN_pp_15
   + y_ZN_edge_connector_pv_15_pp_15_co <= 0
 on_off_constraint_by_sum_actives_ZN_pv_15_pp_15_co: - io_detector_ZN
   + y_ZN_edge_connector_pv_15_pp_15_co <= 0
 on_off_constraint_by_mixing_ZN_pv_15_pp_15_co: - indicator_ZN_pp_15
   - io_detector_ZN + y_ZN_edge_connector_pv_15_pp_15_co >= -1
 edge_flow_ub_ZN_pv_15_pp_15_ve: - 2 y_ZN_edge_connector_pv_15_pp_15_co
   + f_ZN_edge_connector_pv_15_pp_15_co <= 0
 edge_flow_lb_ZN_pv_15_pp_15_ve: 2 y_ZN_edge_connector_pv_15_pp_15_co
   + f_ZN_edge_connector_pv_15_pp_15_co >= 0
 on_off_constraint_by_indicator_ZN_pv_15_ac_15_co: - indicator_ZN_ac_15
   + y_ZN_edge_connector_pv_15_ac_15_co <= 0
 on_off_constraint_by_sum_actives_ZN_pv_15_ac_15_co: - io_detector_ZN
   + y_ZN_edge_connector_pv_15_ac_15_co <= 0
 on_off_constraint_by_mixing_ZN_pv_15_ac_15_co: - indicator_ZN_ac_15
   - io_detector_ZN + y_ZN_edge_connector_pv_15_ac_15_co >= -1
 edge_flow_ub_ZN_pv_15_ac_15_ve: - 2 y_ZN_edge_connector_pv_15_ac_15_co
   + f_ZN_edge_connector_pv_15_ac_15_co <= 0
 edge_flow_lb_ZN_pv_15_ac_15_ve: 2 y_ZN_edge_connector_pv_15_ac_15_co
   + f_ZN_edge_connector_pv_15_ac_15_co >= 0
 on_off_constraint_by_indicator_ZN_nv_15_nn_15_co: - indicator_ZN_nn_15
   + y_ZN_edge_connector_nv_15_nn_15_co <= 0
 on_off_constraint_by_sum_actives_ZN_nv_15_nn_15_co: - io_detector_ZN
   + y_ZN_edge_connector_nv_15_nn_15_co <= 0
 on_off_constraint_by_mixing_ZN_nv_15_nn_15_co: - indicator_ZN_nn_15
   - io_detector_ZN + y_ZN_edge_connector_nv_15_nn_15_co >= -1
 edge_flow_ub_ZN_nv_15_nn_15_ve: - 2 y_ZN_edge_connector_nv_15_nn_15_co
   + f_ZN_edge_connector_nv_15_nn_15_co <= 0
 edge_flow_lb_ZN_nv_15_nn_15_ve: 2 y_ZN_edge_connector_nv_15_nn_15_co
   + f_ZN_edge_connector_nv_15_nn_15_co >= 0
 on_off_constraint_by_indicator_ZN_nv_15_ac_15_co: - indicator_ZN_ac_15
   + y_ZN_edge_connector_nv_15_ac_15_co <= 0
 on_off_constraint_by_sum_actives_ZN_nv_15_ac_15_co: - io_detector_ZN
   + y_ZN_edge_connector_nv_15_ac_15_co <= 0
 on_off_constraint_by_mixing_ZN_nv_15_ac_15_co: - indicator_ZN_ac_15
   - io_detector_ZN + y_ZN_edge_connector_nv_15_ac_15_co >= -1
 edge_flow_ub_ZN_nv_15_ac_15_ve: - 2 y_ZN_edge_connector_nv_15_ac_15_co
   + f_ZN_edge_connector_nv_15_ac_15_co <= 0
 edge_flow_lb_ZN_nv_15_ac_15_ve: 2 y_ZN_edge_connector_nv_15_ac_15_co
   + f_ZN_edge_connector_nv_15_ac_15_co >= 0
 row_selection_on_off_rule1_ZN_pp_3: - 2 indicator_ZN_pp_3
   + c_mar_row_ZN_pp_3_r[3] + c_mar_row_ZN_pp_3_r[2] <= 0
 row_selection_on_off_rule2_ZN_pp_3: - 2 io_detector_ZN
   + c_mar_row_ZN_pp_3_r[3] + c_mar_row_ZN_pp_3_r[2] <= 0
 row_selection_on_off_rule3_ZN_pp_3: - indicator_ZN_pp_3 - io_detector_ZN
   + c_mar_row_ZN_pp_3_r[3] + c_mar_row_ZN_pp_3_r[2] >= -1
 case_selection_on_off_rule1_ZN_pp_3_3: - c_mar_row_ZN_pp_3_r[3]
   + c_mar_row_ZN_pp_3_3_case[0] <= 0
 case_selection_on_off_rule2_ZN_pp_3_3: - c_mar_row_ZN_pp_3_r[3]
   + c_mar_row_ZN_pp_3_3_case[0] >= 0
 mar_constraint_ZN_pp_3_3_left_edge: - t_ZN_c_r[0,3]
   + c_mar_row_ZN_pp_3_3_case[0] <= 0
 mar_constraint_ZN_pp_3_3_real_metal: - t_ZN_c_r[1,3]
   + c_mar_row_ZN_pp_3_3_case[0] <= 0
 mar_constraint_ZN_pp_3_3_right_edge: - t_eol_c_r[2,3] - t_ZN_c_r[2,3]
   + c_mar_row_ZN_pp_3_3_case[0] <= 0
 case_selection_on_off_rule1_ZN_pp_3_2: - c_mar_row_ZN_pp_3_r[2]
   + c_mar_row_ZN_pp_3_2_case[0] <= 0
 case_selection_on_off_rule2_ZN_pp_3_2: - c_mar_row_ZN_pp_3_r[2]
   + c_mar_row_ZN_pp_3_2_case[0] >= 0
 mar_constraint_ZN_pp_3_2_left_edge: - t_ZN_c_r[0,2]
   + c_mar_row_ZN_pp_3_2_case[0] <= 0
 mar_constraint_ZN_pp_3_2_real_metal: - t_ZN_c_r[1,2]
   + c_mar_row_ZN_pp_3_2_case[0] <= 0
 mar_constraint_ZN_pp_3_2_right_edge: - t_eol_c_r[2,2] - t_ZN_c_r[2,2]
   + c_mar_row_ZN_pp_3_2_case[0] <= 0
 row_selection_on_off_rule1_ZN_nn_3: - 2 indicator_ZN_nn_3
   + c_mar_row_ZN_nn_3_r[1] + c_mar_row_ZN_nn_3_r[0] <= 0
 row_selection_on_off_rule2_ZN_nn_3: - 2 io_detector_ZN
   + c_mar_row_ZN_nn_3_r[1] + c_mar_row_ZN_nn_3_r[0] <= 0
 row_selection_on_off_rule3_ZN_nn_3: - indicator_ZN_nn_3 - io_detector_ZN
   + c_mar_row_ZN_nn_3_r[1] + c_mar_row_ZN_nn_3_r[0] >= -1
 case_selection_on_off_rule1_ZN_nn_3_1: - c_mar_row_ZN_nn_3_r[1]
   + c_mar_row_ZN_nn_3_1_case[0] <= 0
 case_selection_on_off_rule2_ZN_nn_3_1: - c_mar_row_ZN_nn_3_r[1]
   + c_mar_row_ZN_nn_3_1_case[0] >= 0
 mar_constraint_ZN_nn_3_1_left_edge: - t_ZN_c_r[0,1]
   + c_mar_row_ZN_nn_3_1_case[0] <= 0
 mar_constraint_ZN_nn_3_1_real_metal: - t_ZN_c_r[1,1]
   + c_mar_row_ZN_nn_3_1_case[0] <= 0
 mar_constraint_ZN_nn_3_1_right_edge: - t_eol_c_r[2,1] - t_ZN_c_r[2,1]
   + c_mar_row_ZN_nn_3_1_case[0] <= 0
 case_selection_on_off_rule1_ZN_nn_3_0: - c_mar_row_ZN_nn_3_r[0]
   + c_mar_row_ZN_nn_3_0_case[0] <= 0
 case_selection_on_off_rule2_ZN_nn_3_0: - c_mar_row_ZN_nn_3_r[0]
   + c_mar_row_ZN_nn_3_0_case[0] >= 0
 mar_constraint_ZN_nn_3_0_left_edge: - t_ZN_c_r[0,0]
   + c_mar_row_ZN_nn_3_0_case[0] <= 0
 mar_constraint_ZN_nn_3_0_real_metal: - t_ZN_c_r[1,0]
   + c_mar_row_ZN_nn_3_0_case[0] <= 0
 mar_constraint_ZN_nn_3_0_right_edge: - t_eol_c_r[2,0] - t_ZN_c_r[2,0]
   + c_mar_row_ZN_nn_3_0_case[0] <= 0
 row_selection_on_off_rule1_ZN_ac_3: - 4 indicator_ZN_ac_3
   + c_mar_row_ZN_ac_3_r[3] + c_mar_row_ZN_ac_3_r[2]
   + c_mar_row_ZN_ac_3_r[1] + c_mar_row_ZN_ac_3_r[0] <= 0
 row_selection_on_off_rule2_ZN_ac_3: - 4 io_detector_ZN
   + c_mar_row_ZN_ac_3_r[3] + c_mar_row_ZN_ac_3_r[2]
   + c_mar_row_ZN_ac_3_r[1] + c_mar_row_ZN_ac_3_r[0] <= 0
 row_selection_on_off_rule3_ZN_ac_3: - indicator_ZN_ac_3 - io_detector_ZN
   + c_mar_row_ZN_ac_3_r[3] + c_mar_row_ZN_ac_3_r[2]
   + c_mar_row_ZN_ac_3_r[1] + c_mar_row_ZN_ac_3_r[0] >= -1
 case_selection_on_off_rule1_ZN_ac_3_3: - c_mar_row_ZN_ac_3_r[3]
   + c_mar_row_ZN_ac_3_3_case[0] <= 0
 case_selection_on_off_rule2_ZN_ac_3_3: - c_mar_row_ZN_ac_3_r[3]
   + c_mar_row_ZN_ac_3_3_case[0] >= 0
 mar_constraint_ZN_ac_3_3_left_edge: - t_ZN_c_r[0,3]
   + c_mar_row_ZN_ac_3_3_case[0] <= 0
 mar_constraint_ZN_ac_3_3_real_metal: - t_ZN_c_r[1,3]
   + c_mar_row_ZN_ac_3_3_case[0] <= 0
 mar_constraint_ZN_ac_3_3_right_edge: - t_eol_c_r[2,3] - t_ZN_c_r[2,3]
   + c_mar_row_ZN_ac_3_3_case[0] <= 0
 case_selection_on_off_rule1_ZN_ac_3_2: - c_mar_row_ZN_ac_3_r[2]
   + c_mar_row_ZN_ac_3_2_case[0] <= 0
 case_selection_on_off_rule2_ZN_ac_3_2: - c_mar_row_ZN_ac_3_r[2]
   + c_mar_row_ZN_ac_3_2_case[0] >= 0
 mar_constraint_ZN_ac_3_2_left_edge: - t_ZN_c_r[0,2]
   + c_mar_row_ZN_ac_3_2_case[0] <= 0
 mar_constraint_ZN_ac_3_2_real_metal: - t_ZN_c_r[1,2]
   + c_mar_row_ZN_ac_3_2_case[0] <= 0
 mar_constraint_ZN_ac_3_2_right_edge: - t_eol_c_r[2,2] - t_ZN_c_r[2,2]
   + c_mar_row_ZN_ac_3_2_case[0] <= 0
 case_selection_on_off_rule1_ZN_ac_3_1: - c_mar_row_ZN_ac_3_r[1]
   + c_mar_row_ZN_ac_3_1_case[0] <= 0
 case_selection_on_off_rule2_ZN_ac_3_1: - c_mar_row_ZN_ac_3_r[1]
   + c_mar_row_ZN_ac_3_1_case[0] >= 0
 mar_constraint_ZN_ac_3_1_left_edge: - t_ZN_c_r[0,1]
   + c_mar_row_ZN_ac_3_1_case[0] <= 0
 mar_constraint_ZN_ac_3_1_real_metal: - t_ZN_c_r[1,1]
   + c_mar_row_ZN_ac_3_1_case[0] <= 0
 mar_constraint_ZN_ac_3_1_right_edge: - t_eol_c_r[2,1] - t_ZN_c_r[2,1]
   + c_mar_row_ZN_ac_3_1_case[0] <= 0
 case_selection_on_off_rule1_ZN_ac_3_0: - c_mar_row_ZN_ac_3_r[0]
   + c_mar_row_ZN_ac_3_0_case[0] <= 0
 case_selection_on_off_rule2_ZN_ac_3_0: - c_mar_row_ZN_ac_3_r[0]
   + c_mar_row_ZN_ac_3_0_case[0] >= 0
 mar_constraint_ZN_ac_3_0_left_edge: - t_ZN_c_r[0,0]
   + c_mar_row_ZN_ac_3_0_case[0] <= 0
 mar_constraint_ZN_ac_3_0_real_metal: - t_ZN_c_r[1,0]
   + c_mar_row_ZN_ac_3_0_case[0] <= 0
 mar_constraint_ZN_ac_3_0_right_edge: - t_eol_c_r[2,0] - t_ZN_c_r[2,0]
   + c_mar_row_ZN_ac_3_0_case[0] <= 0
 row_selection_on_off_rule1_ZN_pp_6: - 2 indicator_ZN_pp_6
   + c_mar_row_ZN_pp_6_r[3] + c_mar_row_ZN_pp_6_r[2] <= 0
 row_selection_on_off_rule2_ZN_pp_6: - 2 io_detector_ZN
   + c_mar_row_ZN_pp_6_r[3] + c_mar_row_ZN_pp_6_r[2] <= 0
 row_selection_on_off_rule3_ZN_pp_6: - indicator_ZN_pp_6 - io_detector_ZN
   + c_mar_row_ZN_pp_6_r[3] + c_mar_row_ZN_pp_6_r[2] >= -1
 case_selection_on_off_rule1_ZN_pp_6_3: - c_mar_row_ZN_pp_6_r[3]
   + c_mar_row_ZN_pp_6_3_case[0] + c_mar_row_ZN_pp_6_3_case[1] <= 0
 case_selection_on_off_rule2_ZN_pp_6_3: - c_mar_row_ZN_pp_6_r[3]
   + c_mar_row_ZN_pp_6_3_case[0] + c_mar_row_ZN_pp_6_3_case[1] >= 0
 mar_constraint_ZN_pp_6_3_left_edge: - t_ZN_c_r[0,3]
   + c_mar_row_ZN_pp_6_3_case[0] <= 0
 mar_constraint_ZN_pp_6_3_real_metal: - t_ZN_c_r[1,3]
   + c_mar_row_ZN_pp_6_3_case[0] <= 0
 mar_constraint_ZN_pp_6_3_right_edge: - t_eol_c_r[2,3] - t_ZN_c_r[2,3]
   + c_mar_row_ZN_pp_6_3_case[0] <= 0
 mar_constraint_ZN_pp_6_3_left_edge: - t_eol_c_r[0,3] - t_ZN_c_r[0,3]
   + c_mar_row_ZN_pp_6_3_case[1] <= 0
 mar_constraint_ZN_pp_6_3_real_metal: - t_ZN_c_r[1,3]
   + c_mar_row_ZN_pp_6_3_case[1] <= 0
 mar_constraint_ZN_pp_6_3_real_metal: - t_ZN_c_r[2,3]
   + c_mar_row_ZN_pp_6_3_case[1] <= 0
 mar_constraint_ZN_pp_6_3_right_edge: - t_eol_c_r[3,3] - t_ZN_c_r[3,3]
   + c_mar_row_ZN_pp_6_3_case[1] <= 0
 case_selection_on_off_rule1_ZN_pp_6_2: - c_mar_row_ZN_pp_6_r[2]
   + c_mar_row_ZN_pp_6_2_case[0] + c_mar_row_ZN_pp_6_2_case[1] <= 0
 case_selection_on_off_rule2_ZN_pp_6_2: - c_mar_row_ZN_pp_6_r[2]
   + c_mar_row_ZN_pp_6_2_case[0] + c_mar_row_ZN_pp_6_2_case[1] >= 0
 mar_constraint_ZN_pp_6_2_left_edge: - t_ZN_c_r[0,2]
   + c_mar_row_ZN_pp_6_2_case[0] <= 0
 mar_constraint_ZN_pp_6_2_real_metal: - t_ZN_c_r[1,2]
   + c_mar_row_ZN_pp_6_2_case[0] <= 0
 mar_constraint_ZN_pp_6_2_right_edge: - t_eol_c_r[2,2] - t_ZN_c_r[2,2]
   + c_mar_row_ZN_pp_6_2_case[0] <= 0
 mar_constraint_ZN_pp_6_2_left_edge: - t_eol_c_r[0,2] - t_ZN_c_r[0,2]
   + c_mar_row_ZN_pp_6_2_case[1] <= 0
 mar_constraint_ZN_pp_6_2_real_metal: - t_ZN_c_r[1,2]
   + c_mar_row_ZN_pp_6_2_case[1] <= 0
 mar_constraint_ZN_pp_6_2_real_metal: - t_ZN_c_r[2,2]
   + c_mar_row_ZN_pp_6_2_case[1] <= 0
 mar_constraint_ZN_pp_6_2_right_edge: - t_eol_c_r[3,2] - t_ZN_c_r[3,2]
   + c_mar_row_ZN_pp_6_2_case[1] <= 0
 row_selection_on_off_rule1_ZN_nn_6: - 2 indicator_ZN_nn_6
   + c_mar_row_ZN_nn_6_r[1] + c_mar_row_ZN_nn_6_r[0] <= 0
 row_selection_on_off_rule2_ZN_nn_6: - 2 io_detector_ZN
   + c_mar_row_ZN_nn_6_r[1] + c_mar_row_ZN_nn_6_r[0] <= 0
 row_selection_on_off_rule3_ZN_nn_6: - indicator_ZN_nn_6 - io_detector_ZN
   + c_mar_row_ZN_nn_6_r[1] + c_mar_row_ZN_nn_6_r[0] >= -1
 case_selection_on_off_rule1_ZN_nn_6_1: - c_mar_row_ZN_nn_6_r[1]
   + c_mar_row_ZN_nn_6_1_case[0] + c_mar_row_ZN_nn_6_1_case[1] <= 0
 case_selection_on_off_rule2_ZN_nn_6_1: - c_mar_row_ZN_nn_6_r[1]
   + c_mar_row_ZN_nn_6_1_case[0] + c_mar_row_ZN_nn_6_1_case[1] >= 0
 mar_constraint_ZN_nn_6_1_left_edge: - t_ZN_c_r[0,1]
   + c_mar_row_ZN_nn_6_1_case[0] <= 0
 mar_constraint_ZN_nn_6_1_real_metal: - t_ZN_c_r[1,1]
   + c_mar_row_ZN_nn_6_1_case[0] <= 0
 mar_constraint_ZN_nn_6_1_right_edge: - t_eol_c_r[2,1] - t_ZN_c_r[2,1]
   + c_mar_row_ZN_nn_6_1_case[0] <= 0
 mar_constraint_ZN_nn_6_1_left_edge: - t_eol_c_r[0,1] - t_ZN_c_r[0,1]
   + c_mar_row_ZN_nn_6_1_case[1] <= 0
 mar_constraint_ZN_nn_6_1_real_metal: - t_ZN_c_r[1,1]
   + c_mar_row_ZN_nn_6_1_case[1] <= 0
 mar_constraint_ZN_nn_6_1_real_metal: - t_ZN_c_r[2,1]
   + c_mar_row_ZN_nn_6_1_case[1] <= 0
 mar_constraint_ZN_nn_6_1_right_edge: - t_eol_c_r[3,1] - t_ZN_c_r[3,1]
   + c_mar_row_ZN_nn_6_1_case[1] <= 0
 case_selection_on_off_rule1_ZN_nn_6_0: - c_mar_row_ZN_nn_6_r[0]
   + c_mar_row_ZN_nn_6_0_case[0] + c_mar_row_ZN_nn_6_0_case[1] <= 0
 case_selection_on_off_rule2_ZN_nn_6_0: - c_mar_row_ZN_nn_6_r[0]
   + c_mar_row_ZN_nn_6_0_case[0] + c_mar_row_ZN_nn_6_0_case[1] >= 0
 mar_constraint_ZN_nn_6_0_left_edge: - t_ZN_c_r[0,0]
   + c_mar_row_ZN_nn_6_0_case[0] <= 0
 mar_constraint_ZN_nn_6_0_real_metal: - t_ZN_c_r[1,0]
   + c_mar_row_ZN_nn_6_0_case[0] <= 0
 mar_constraint_ZN_nn_6_0_right_edge: - t_eol_c_r[2,0] - t_ZN_c_r[2,0]
   + c_mar_row_ZN_nn_6_0_case[0] <= 0
 mar_constraint_ZN_nn_6_0_left_edge: - t_eol_c_r[0,0] - t_ZN_c_r[0,0]
   + c_mar_row_ZN_nn_6_0_case[1] <= 0
 mar_constraint_ZN_nn_6_0_real_metal: - t_ZN_c_r[1,0]
   + c_mar_row_ZN_nn_6_0_case[1] <= 0
 mar_constraint_ZN_nn_6_0_real_metal: - t_ZN_c_r[2,0]
   + c_mar_row_ZN_nn_6_0_case[1] <= 0
 mar_constraint_ZN_nn_6_0_right_edge: - t_eol_c_r[3,0] - t_ZN_c_r[3,0]
   + c_mar_row_ZN_nn_6_0_case[1] <= 0
 row_selection_on_off_rule1_ZN_ac_6: - 4 indicator_ZN_ac_6
   + c_mar_row_ZN_ac_6_r[3] + c_mar_row_ZN_ac_6_r[2]
   + c_mar_row_ZN_ac_6_r[1] + c_mar_row_ZN_ac_6_r[0] <= 0
 row_selection_on_off_rule2_ZN_ac_6: - 4 io_detector_ZN
   + c_mar_row_ZN_ac_6_r[3] + c_mar_row_ZN_ac_6_r[2]
   + c_mar_row_ZN_ac_6_r[1] + c_mar_row_ZN_ac_6_r[0] <= 0
 row_selection_on_off_rule3_ZN_ac_6: - indicator_ZN_ac_6 - io_detector_ZN
   + c_mar_row_ZN_ac_6_r[3] + c_mar_row_ZN_ac_6_r[2]
   + c_mar_row_ZN_ac_6_r[1] + c_mar_row_ZN_ac_6_r[0] >= -1
 case_selection_on_off_rule1_ZN_ac_6_3: - c_mar_row_ZN_ac_6_r[3]
   + c_mar_row_ZN_ac_6_3_case[0] + c_mar_row_ZN_ac_6_3_case[1] <= 0
 case_selection_on_off_rule2_ZN_ac_6_3: - c_mar_row_ZN_ac_6_r[3]
   + c_mar_row_ZN_ac_6_3_case[0] + c_mar_row_ZN_ac_6_3_case[1] >= 0
 mar_constraint_ZN_ac_6_3_left_edge: - t_ZN_c_r[0,3]
   + c_mar_row_ZN_ac_6_3_case[0] <= 0
 mar_constraint_ZN_ac_6_3_real_metal: - t_ZN_c_r[1,3]
   + c_mar_row_ZN_ac_6_3_case[0] <= 0
 mar_constraint_ZN_ac_6_3_right_edge: - t_eol_c_r[2,3] - t_ZN_c_r[2,3]
   + c_mar_row_ZN_ac_6_3_case[0] <= 0
 mar_constraint_ZN_ac_6_3_left_edge: - t_eol_c_r[0,3] - t_ZN_c_r[0,3]
   + c_mar_row_ZN_ac_6_3_case[1] <= 0
 mar_constraint_ZN_ac_6_3_real_metal: - t_ZN_c_r[1,3]
   + c_mar_row_ZN_ac_6_3_case[1] <= 0
 mar_constraint_ZN_ac_6_3_real_metal: - t_ZN_c_r[2,3]
   + c_mar_row_ZN_ac_6_3_case[1] <= 0
 mar_constraint_ZN_ac_6_3_right_edge: - t_eol_c_r[3,3] - t_ZN_c_r[3,3]
   + c_mar_row_ZN_ac_6_3_case[1] <= 0
 case_selection_on_off_rule1_ZN_ac_6_2: - c_mar_row_ZN_ac_6_r[2]
   + c_mar_row_ZN_ac_6_2_case[0] + c_mar_row_ZN_ac_6_2_case[1] <= 0
 case_selection_on_off_rule2_ZN_ac_6_2: - c_mar_row_ZN_ac_6_r[2]
   + c_mar_row_ZN_ac_6_2_case[0] + c_mar_row_ZN_ac_6_2_case[1] >= 0
 mar_constraint_ZN_ac_6_2_left_edge: - t_ZN_c_r[0,2]
   + c_mar_row_ZN_ac_6_2_case[0] <= 0
 mar_constraint_ZN_ac_6_2_real_metal: - t_ZN_c_r[1,2]
   + c_mar_row_ZN_ac_6_2_case[0] <= 0
 mar_constraint_ZN_ac_6_2_right_edge: - t_eol_c_r[2,2] - t_ZN_c_r[2,2]
   + c_mar_row_ZN_ac_6_2_case[0] <= 0
 mar_constraint_ZN_ac_6_2_left_edge: - t_eol_c_r[0,2] - t_ZN_c_r[0,2]
   + c_mar_row_ZN_ac_6_2_case[1] <= 0
 mar_constraint_ZN_ac_6_2_real_metal: - t_ZN_c_r[1,2]
   + c_mar_row_ZN_ac_6_2_case[1] <= 0
 mar_constraint_ZN_ac_6_2_real_metal: - t_ZN_c_r[2,2]
   + c_mar_row_ZN_ac_6_2_case[1] <= 0
 mar_constraint_ZN_ac_6_2_right_edge: - t_eol_c_r[3,2] - t_ZN_c_r[3,2]
   + c_mar_row_ZN_ac_6_2_case[1] <= 0
 case_selection_on_off_rule1_ZN_ac_6_1: - c_mar_row_ZN_ac_6_r[1]
   + c_mar_row_ZN_ac_6_1_case[0] + c_mar_row_ZN_ac_6_1_case[1] <= 0
 case_selection_on_off_rule2_ZN_ac_6_1: - c_mar_row_ZN_ac_6_r[1]
   + c_mar_row_ZN_ac_6_1_case[0] + c_mar_row_ZN_ac_6_1_case[1] >= 0
 mar_constraint_ZN_ac_6_1_left_edge: - t_ZN_c_r[0,1]
   + c_mar_row_ZN_ac_6_1_case[0] <= 0
 mar_constraint_ZN_ac_6_1_real_metal: - t_ZN_c_r[1,1]
   + c_mar_row_ZN_ac_6_1_case[0] <= 0
 mar_constraint_ZN_ac_6_1_right_edge: - t_eol_c_r[2,1] - t_ZN_c_r[2,1]
   + c_mar_row_ZN_ac_6_1_case[0] <= 0
 mar_constraint_ZN_ac_6_1_left_edge: - t_eol_c_r[0,1] - t_ZN_c_r[0,1]
   + c_mar_row_ZN_ac_6_1_case[1] <= 0
 mar_constraint_ZN_ac_6_1_real_metal: - t_ZN_c_r[1,1]
   + c_mar_row_ZN_ac_6_1_case[1] <= 0
 mar_constraint_ZN_ac_6_1_real_metal: - t_ZN_c_r[2,1]
   + c_mar_row_ZN_ac_6_1_case[1] <= 0
 mar_constraint_ZN_ac_6_1_right_edge: - t_eol_c_r[3,1] - t_ZN_c_r[3,1]
   + c_mar_row_ZN_ac_6_1_case[1] <= 0
 case_selection_on_off_rule1_ZN_ac_6_0: - c_mar_row_ZN_ac_6_r[0]
   + c_mar_row_ZN_ac_6_0_case[0] + c_mar_row_ZN_ac_6_0_case[1] <= 0
 case_selection_on_off_rule2_ZN_ac_6_0: - c_mar_row_ZN_ac_6_r[0]
   + c_mar_row_ZN_ac_6_0_case[0] + c_mar_row_ZN_ac_6_0_case[1] >= 0
 mar_constraint_ZN_ac_6_0_left_edge: - t_ZN_c_r[0,0]
   + c_mar_row_ZN_ac_6_0_case[0] <= 0
 mar_constraint_ZN_ac_6_0_real_metal: - t_ZN_c_r[1,0]
   + c_mar_row_ZN_ac_6_0_case[0] <= 0
 mar_constraint_ZN_ac_6_0_right_edge: - t_eol_c_r[2,0] - t_ZN_c_r[2,0]
   + c_mar_row_ZN_ac_6_0_case[0] <= 0
 mar_constraint_ZN_ac_6_0_left_edge: - t_eol_c_r[0,0] - t_ZN_c_r[0,0]
   + c_mar_row_ZN_ac_6_0_case[1] <= 0
 mar_constraint_ZN_ac_6_0_real_metal: - t_ZN_c_r[1,0]
   + c_mar_row_ZN_ac_6_0_case[1] <= 0
 mar_constraint_ZN_ac_6_0_real_metal: - t_ZN_c_r[2,0]
   + c_mar_row_ZN_ac_6_0_case[1] <= 0
 mar_constraint_ZN_ac_6_0_right_edge: - t_eol_c_r[3,0] - t_ZN_c_r[3,0]
   + c_mar_row_ZN_ac_6_0_case[1] <= 0
 row_selection_on_off_rule1_ZN_pp_9: - 2 indicator_ZN_pp_9
   + c_mar_row_ZN_pp_9_r[3] + c_mar_row_ZN_pp_9_r[2] <= 0
 row_selection_on_off_rule2_ZN_pp_9: - 2 io_detector_ZN
   + c_mar_row_ZN_pp_9_r[3] + c_mar_row_ZN_pp_9_r[2] <= 0
 row_selection_on_off_rule3_ZN_pp_9: - indicator_ZN_pp_9 - io_detector_ZN
   + c_mar_row_ZN_pp_9_r[3] + c_mar_row_ZN_pp_9_r[2] >= -1
 case_selection_on_off_rule1_ZN_pp_9_3: - c_mar_row_ZN_pp_9_r[3]
   + c_mar_row_ZN_pp_9_3_case[0] + c_mar_row_ZN_pp_9_3_case[1] <= 0
 case_selection_on_off_rule2_ZN_pp_9_3: - c_mar_row_ZN_pp_9_r[3]
   + c_mar_row_ZN_pp_9_3_case[0] + c_mar_row_ZN_pp_9_3_case[1] >= 0
 mar_constraint_ZN_pp_9_3_left_edge: - t_eol_c_r[0,3] - t_ZN_c_r[0,3]
   + c_mar_row_ZN_pp_9_3_case[0] <= 0
 mar_constraint_ZN_pp_9_3_real_metal: - t_ZN_c_r[1,3]
   + c_mar_row_ZN_pp_9_3_case[0] <= 0
 mar_constraint_ZN_pp_9_3_real_metal: - t_ZN_c_r[2,3]
   + c_mar_row_ZN_pp_9_3_case[0] <= 0
 mar_constraint_ZN_pp_9_3_right_edge: - t_eol_c_r[3,3] - t_ZN_c_r[3,3]
   + c_mar_row_ZN_pp_9_3_case[0] <= 0
 mar_constraint_ZN_pp_9_3_left_edge: - t_eol_c_r[1,3] - t_ZN_c_r[1,3]
   + c_mar_row_ZN_pp_9_3_case[1] <= 0
 mar_constraint_ZN_pp_9_3_real_metal: - t_ZN_c_r[2,3]
   + c_mar_row_ZN_pp_9_3_case[1] <= 0
 mar_constraint_ZN_pp_9_3_real_metal: - t_ZN_c_r[3,3]
   + c_mar_row_ZN_pp_9_3_case[1] <= 0
 mar_constraint_ZN_pp_9_3_right_edge: - t_eol_c_r[4,3] - t_ZN_c_r[4,3]
   + c_mar_row_ZN_pp_9_3_case[1] <= 0
 case_selection_on_off_rule1_ZN_pp_9_2: - c_mar_row_ZN_pp_9_r[2]
   + c_mar_row_ZN_pp_9_2_case[0] + c_mar_row_ZN_pp_9_2_case[1] <= 0
 case_selection_on_off_rule2_ZN_pp_9_2: - c_mar_row_ZN_pp_9_r[2]
   + c_mar_row_ZN_pp_9_2_case[0] + c_mar_row_ZN_pp_9_2_case[1] >= 0
 mar_constraint_ZN_pp_9_2_left_edge: - t_eol_c_r[0,2] - t_ZN_c_r[0,2]
   + c_mar_row_ZN_pp_9_2_case[0] <= 0
 mar_constraint_ZN_pp_9_2_real_metal: - t_ZN_c_r[1,2]
   + c_mar_row_ZN_pp_9_2_case[0] <= 0
 mar_constraint_ZN_pp_9_2_real_metal: - t_ZN_c_r[2,2]
   + c_mar_row_ZN_pp_9_2_case[0] <= 0
 mar_constraint_ZN_pp_9_2_right_edge: - t_eol_c_r[3,2] - t_ZN_c_r[3,2]
   + c_mar_row_ZN_pp_9_2_case[0] <= 0
 mar_constraint_ZN_pp_9_2_left_edge: - t_eol_c_r[1,2] - t_ZN_c_r[1,2]
   + c_mar_row_ZN_pp_9_2_case[1] <= 0
 mar_constraint_ZN_pp_9_2_real_metal: - t_ZN_c_r[2,2]
   + c_mar_row_ZN_pp_9_2_case[1] <= 0
 mar_constraint_ZN_pp_9_2_real_metal: - t_ZN_c_r[3,2]
   + c_mar_row_ZN_pp_9_2_case[1] <= 0
 mar_constraint_ZN_pp_9_2_right_edge: - t_eol_c_r[4,2] - t_ZN_c_r[4,2]
   + c_mar_row_ZN_pp_9_2_case[1] <= 0
 row_selection_on_off_rule1_ZN_nn_9: - 2 indicator_ZN_nn_9
   + c_mar_row_ZN_nn_9_r[1] + c_mar_row_ZN_nn_9_r[0] <= 0
 row_selection_on_off_rule2_ZN_nn_9: - 2 io_detector_ZN
   + c_mar_row_ZN_nn_9_r[1] + c_mar_row_ZN_nn_9_r[0] <= 0
 row_selection_on_off_rule3_ZN_nn_9: - indicator_ZN_nn_9 - io_detector_ZN
   + c_mar_row_ZN_nn_9_r[1] + c_mar_row_ZN_nn_9_r[0] >= -1
 case_selection_on_off_rule1_ZN_nn_9_1: - c_mar_row_ZN_nn_9_r[1]
   + c_mar_row_ZN_nn_9_1_case[0] + c_mar_row_ZN_nn_9_1_case[1] <= 0
 case_selection_on_off_rule2_ZN_nn_9_1: - c_mar_row_ZN_nn_9_r[1]
   + c_mar_row_ZN_nn_9_1_case[0] + c_mar_row_ZN_nn_9_1_case[1] >= 0
 mar_constraint_ZN_nn_9_1_left_edge: - t_eol_c_r[0,1] - t_ZN_c_r[0,1]
   + c_mar_row_ZN_nn_9_1_case[0] <= 0
 mar_constraint_ZN_nn_9_1_real_metal: - t_ZN_c_r[1,1]
   + c_mar_row_ZN_nn_9_1_case[0] <= 0
 mar_constraint_ZN_nn_9_1_real_metal: - t_ZN_c_r[2,1]
   + c_mar_row_ZN_nn_9_1_case[0] <= 0
 mar_constraint_ZN_nn_9_1_right_edge: - t_eol_c_r[3,1] - t_ZN_c_r[3,1]
   + c_mar_row_ZN_nn_9_1_case[0] <= 0
 mar_constraint_ZN_nn_9_1_left_edge: - t_eol_c_r[1,1] - t_ZN_c_r[1,1]
   + c_mar_row_ZN_nn_9_1_case[1] <= 0
 mar_constraint_ZN_nn_9_1_real_metal: - t_ZN_c_r[2,1]
   + c_mar_row_ZN_nn_9_1_case[1] <= 0
 mar_constraint_ZN_nn_9_1_real_metal: - t_ZN_c_r[3,1]
   + c_mar_row_ZN_nn_9_1_case[1] <= 0
 mar_constraint_ZN_nn_9_1_right_edge: - t_eol_c_r[4,1] - t_ZN_c_r[4,1]
   + c_mar_row_ZN_nn_9_1_case[1] <= 0
 case_selection_on_off_rule1_ZN_nn_9_0: - c_mar_row_ZN_nn_9_r[0]
   + c_mar_row_ZN_nn_9_0_case[0] + c_mar_row_ZN_nn_9_0_case[1] <= 0
 case_selection_on_off_rule2_ZN_nn_9_0: - c_mar_row_ZN_nn_9_r[0]
   + c_mar_row_ZN_nn_9_0_case[0] + c_mar_row_ZN_nn_9_0_case[1] >= 0
 mar_constraint_ZN_nn_9_0_left_edge: - t_eol_c_r[0,0] - t_ZN_c_r[0,0]
   + c_mar_row_ZN_nn_9_0_case[0] <= 0
 mar_constraint_ZN_nn_9_0_real_metal: - t_ZN_c_r[1,0]
   + c_mar_row_ZN_nn_9_0_case[0] <= 0
 mar_constraint_ZN_nn_9_0_real_metal: - t_ZN_c_r[2,0]
   + c_mar_row_ZN_nn_9_0_case[0] <= 0
 mar_constraint_ZN_nn_9_0_right_edge: - t_eol_c_r[3,0] - t_ZN_c_r[3,0]
   + c_mar_row_ZN_nn_9_0_case[0] <= 0
 mar_constraint_ZN_nn_9_0_left_edge: - t_eol_c_r[1,0] - t_ZN_c_r[1,0]
   + c_mar_row_ZN_nn_9_0_case[1] <= 0
 mar_constraint_ZN_nn_9_0_real_metal: - t_ZN_c_r[2,0]
   + c_mar_row_ZN_nn_9_0_case[1] <= 0
 mar_constraint_ZN_nn_9_0_real_metal: - t_ZN_c_r[3,0]
   + c_mar_row_ZN_nn_9_0_case[1] <= 0
 mar_constraint_ZN_nn_9_0_right_edge: - t_eol_c_r[4,0] - t_ZN_c_r[4,0]
   + c_mar_row_ZN_nn_9_0_case[1] <= 0
 row_selection_on_off_rule1_ZN_ac_9: - 4 indicator_ZN_ac_9
   + c_mar_row_ZN_ac_9_r[3] + c_mar_row_ZN_ac_9_r[2]
   + c_mar_row_ZN_ac_9_r[1] + c_mar_row_ZN_ac_9_r[0] <= 0
 row_selection_on_off_rule2_ZN_ac_9: - 4 io_detector_ZN
   + c_mar_row_ZN_ac_9_r[3] + c_mar_row_ZN_ac_9_r[2]
   + c_mar_row_ZN_ac_9_r[1] + c_mar_row_ZN_ac_9_r[0] <= 0
 row_selection_on_off_rule3_ZN_ac_9: - indicator_ZN_ac_9 - io_detector_ZN
   + c_mar_row_ZN_ac_9_r[3] + c_mar_row_ZN_ac_9_r[2]
   + c_mar_row_ZN_ac_9_r[1] + c_mar_row_ZN_ac_9_r[0] >= -1
 case_selection_on_off_rule1_ZN_ac_9_3: - c_mar_row_ZN_ac_9_r[3]
   + c_mar_row_ZN_ac_9_3_case[0] + c_mar_row_ZN_ac_9_3_case[1] <= 0
 case_selection_on_off_rule2_ZN_ac_9_3: - c_mar_row_ZN_ac_9_r[3]
   + c_mar_row_ZN_ac_9_3_case[0] + c_mar_row_ZN_ac_9_3_case[1] >= 0
 mar_constraint_ZN_ac_9_3_left_edge: - t_eol_c_r[0,3] - t_ZN_c_r[0,3]
   + c_mar_row_ZN_ac_9_3_case[0] <= 0
 mar_constraint_ZN_ac_9_3_real_metal: - t_ZN_c_r[1,3]
   + c_mar_row_ZN_ac_9_3_case[0] <= 0
 mar_constraint_ZN_ac_9_3_real_metal: - t_ZN_c_r[2,3]
   + c_mar_row_ZN_ac_9_3_case[0] <= 0
 mar_constraint_ZN_ac_9_3_right_edge: - t_eol_c_r[3,3] - t_ZN_c_r[3,3]
   + c_mar_row_ZN_ac_9_3_case[0] <= 0
 mar_constraint_ZN_ac_9_3_left_edge: - t_eol_c_r[1,3] - t_ZN_c_r[1,3]
   + c_mar_row_ZN_ac_9_3_case[1] <= 0
 mar_constraint_ZN_ac_9_3_real_metal: - t_ZN_c_r[2,3]
   + c_mar_row_ZN_ac_9_3_case[1] <= 0
 mar_constraint_ZN_ac_9_3_real_metal: - t_ZN_c_r[3,3]
   + c_mar_row_ZN_ac_9_3_case[1] <= 0
 mar_constraint_ZN_ac_9_3_right_edge: - t_eol_c_r[4,3] - t_ZN_c_r[4,3]
   + c_mar_row_ZN_ac_9_3_case[1] <= 0
 case_selection_on_off_rule1_ZN_ac_9_2: - c_mar_row_ZN_ac_9_r[2]
   + c_mar_row_ZN_ac_9_2_case[0] + c_mar_row_ZN_ac_9_2_case[1] <= 0
 case_selection_on_off_rule2_ZN_ac_9_2: - c_mar_row_ZN_ac_9_r[2]
   + c_mar_row_ZN_ac_9_2_case[0] + c_mar_row_ZN_ac_9_2_case[1] >= 0
 mar_constraint_ZN_ac_9_2_left_edge: - t_eol_c_r[0,2] - t_ZN_c_r[0,2]
   + c_mar_row_ZN_ac_9_2_case[0] <= 0
 mar_constraint_ZN_ac_9_2_real_metal: - t_ZN_c_r[1,2]
   + c_mar_row_ZN_ac_9_2_case[0] <= 0
 mar_constraint_ZN_ac_9_2_real_metal: - t_ZN_c_r[2,2]
   + c_mar_row_ZN_ac_9_2_case[0] <= 0
 mar_constraint_ZN_ac_9_2_right_edge: - t_eol_c_r[3,2] - t_ZN_c_r[3,2]
   + c_mar_row_ZN_ac_9_2_case[0] <= 0
 mar_constraint_ZN_ac_9_2_left_edge: - t_eol_c_r[1,2] - t_ZN_c_r[1,2]
   + c_mar_row_ZN_ac_9_2_case[1] <= 0
 mar_constraint_ZN_ac_9_2_real_metal: - t_ZN_c_r[2,2]
   + c_mar_row_ZN_ac_9_2_case[1] <= 0
 mar_constraint_ZN_ac_9_2_real_metal: - t_ZN_c_r[3,2]
   + c_mar_row_ZN_ac_9_2_case[1] <= 0
 mar_constraint_ZN_ac_9_2_right_edge: - t_eol_c_r[4,2] - t_ZN_c_r[4,2]
   + c_mar_row_ZN_ac_9_2_case[1] <= 0
 case_selection_on_off_rule1_ZN_ac_9_1: - c_mar_row_ZN_ac_9_r[1]
   + c_mar_row_ZN_ac_9_1_case[0] + c_mar_row_ZN_ac_9_1_case[1] <= 0
 case_selection_on_off_rule2_ZN_ac_9_1: - c_mar_row_ZN_ac_9_r[1]
   + c_mar_row_ZN_ac_9_1_case[0] + c_mar_row_ZN_ac_9_1_case[1] >= 0
 mar_constraint_ZN_ac_9_1_left_edge: - t_eol_c_r[0,1] - t_ZN_c_r[0,1]
   + c_mar_row_ZN_ac_9_1_case[0] <= 0
 mar_constraint_ZN_ac_9_1_real_metal: - t_ZN_c_r[1,1]
   + c_mar_row_ZN_ac_9_1_case[0] <= 0
 mar_constraint_ZN_ac_9_1_real_metal: - t_ZN_c_r[2,1]
   + c_mar_row_ZN_ac_9_1_case[0] <= 0
 mar_constraint_ZN_ac_9_1_right_edge: - t_eol_c_r[3,1] - t_ZN_c_r[3,1]
   + c_mar_row_ZN_ac_9_1_case[0] <= 0
 mar_constraint_ZN_ac_9_1_left_edge: - t_eol_c_r[1,1] - t_ZN_c_r[1,1]
   + c_mar_row_ZN_ac_9_1_case[1] <= 0
 mar_constraint_ZN_ac_9_1_real_metal: - t_ZN_c_r[2,1]
   + c_mar_row_ZN_ac_9_1_case[1] <= 0
 mar_constraint_ZN_ac_9_1_real_metal: - t_ZN_c_r[3,1]
   + c_mar_row_ZN_ac_9_1_case[1] <= 0
 mar_constraint_ZN_ac_9_1_right_edge: - t_eol_c_r[4,1] - t_ZN_c_r[4,1]
   + c_mar_row_ZN_ac_9_1_case[1] <= 0
 case_selection_on_off_rule1_ZN_ac_9_0: - c_mar_row_ZN_ac_9_r[0]
   + c_mar_row_ZN_ac_9_0_case[0] + c_mar_row_ZN_ac_9_0_case[1] <= 0
 case_selection_on_off_rule2_ZN_ac_9_0: - c_mar_row_ZN_ac_9_r[0]
   + c_mar_row_ZN_ac_9_0_case[0] + c_mar_row_ZN_ac_9_0_case[1] >= 0
 mar_constraint_ZN_ac_9_0_left_edge: - t_eol_c_r[0,0] - t_ZN_c_r[0,0]
   + c_mar_row_ZN_ac_9_0_case[0] <= 0
 mar_constraint_ZN_ac_9_0_real_metal: - t_ZN_c_r[1,0]
   + c_mar_row_ZN_ac_9_0_case[0] <= 0
 mar_constraint_ZN_ac_9_0_real_metal: - t_ZN_c_r[2,0]
   + c_mar_row_ZN_ac_9_0_case[0] <= 0
 mar_constraint_ZN_ac_9_0_right_edge: - t_eol_c_r[3,0] - t_ZN_c_r[3,0]
   + c_mar_row_ZN_ac_9_0_case[0] <= 0
 mar_constraint_ZN_ac_9_0_left_edge: - t_eol_c_r[1,0] - t_ZN_c_r[1,0]
   + c_mar_row_ZN_ac_9_0_case[1] <= 0
 mar_constraint_ZN_ac_9_0_real_metal: - t_ZN_c_r[2,0]
   + c_mar_row_ZN_ac_9_0_case[1] <= 0
 mar_constraint_ZN_ac_9_0_real_metal: - t_ZN_c_r[3,0]
   + c_mar_row_ZN_ac_9_0_case[1] <= 0
 mar_constraint_ZN_ac_9_0_right_edge: - t_eol_c_r[4,0] - t_ZN_c_r[4,0]
   + c_mar_row_ZN_ac_9_0_case[1] <= 0
 row_selection_on_off_rule1_ZN_pp_12: - 2 indicator_ZN_pp_12
   + c_mar_row_ZN_pp_12_r[3] + c_mar_row_ZN_pp_12_r[2] <= 0
 row_selection_on_off_rule2_ZN_pp_12: - 2 io_detector_ZN
   + c_mar_row_ZN_pp_12_r[3] + c_mar_row_ZN_pp_12_r[2] <= 0
 row_selection_on_off_rule3_ZN_pp_12: - indicator_ZN_pp_12 - io_detector_ZN
   + c_mar_row_ZN_pp_12_r[3] + c_mar_row_ZN_pp_12_r[2] >= -1
 case_selection_on_off_rule1_ZN_pp_12_3: - c_mar_row_ZN_pp_12_r[3]
   + c_mar_row_ZN_pp_12_3_case[0] + c_mar_row_ZN_pp_12_3_case[1] <= 0
 case_selection_on_off_rule2_ZN_pp_12_3: - c_mar_row_ZN_pp_12_r[3]
   + c_mar_row_ZN_pp_12_3_case[0] + c_mar_row_ZN_pp_12_3_case[1] >= 0
 mar_constraint_ZN_pp_12_3_left_edge: - t_eol_c_r[1,3] - t_ZN_c_r[1,3]
   + c_mar_row_ZN_pp_12_3_case[0] <= 0
 mar_constraint_ZN_pp_12_3_real_metal: - t_ZN_c_r[2,3]
   + c_mar_row_ZN_pp_12_3_case[0] <= 0
 mar_constraint_ZN_pp_12_3_real_metal: - t_ZN_c_r[3,3]
   + c_mar_row_ZN_pp_12_3_case[0] <= 0
 mar_constraint_ZN_pp_12_3_right_edge: - t_eol_c_r[4,3] - t_ZN_c_r[4,3]
   + c_mar_row_ZN_pp_12_3_case[0] <= 0
 mar_constraint_ZN_pp_12_3_left_edge: - t_eol_c_r[2,3] - t_ZN_c_r[2,3]
   + c_mar_row_ZN_pp_12_3_case[1] <= 0
 mar_constraint_ZN_pp_12_3_real_metal: - t_ZN_c_r[3,3]
   + c_mar_row_ZN_pp_12_3_case[1] <= 0
 mar_constraint_ZN_pp_12_3_right_edge: - t_ZN_c_r[4,3]
   + c_mar_row_ZN_pp_12_3_case[1] <= 0
 case_selection_on_off_rule1_ZN_pp_12_2: - c_mar_row_ZN_pp_12_r[2]
   + c_mar_row_ZN_pp_12_2_case[0] + c_mar_row_ZN_pp_12_2_case[1] <= 0
 case_selection_on_off_rule2_ZN_pp_12_2: - c_mar_row_ZN_pp_12_r[2]
   + c_mar_row_ZN_pp_12_2_case[0] + c_mar_row_ZN_pp_12_2_case[1] >= 0
 mar_constraint_ZN_pp_12_2_left_edge: - t_eol_c_r[1,2] - t_ZN_c_r[1,2]
   + c_mar_row_ZN_pp_12_2_case[0] <= 0
 mar_constraint_ZN_pp_12_2_real_metal: - t_ZN_c_r[2,2]
   + c_mar_row_ZN_pp_12_2_case[0] <= 0
 mar_constraint_ZN_pp_12_2_real_metal: - t_ZN_c_r[3,2]
   + c_mar_row_ZN_pp_12_2_case[0] <= 0
 mar_constraint_ZN_pp_12_2_right_edge: - t_eol_c_r[4,2] - t_ZN_c_r[4,2]
   + c_mar_row_ZN_pp_12_2_case[0] <= 0
 mar_constraint_ZN_pp_12_2_left_edge: - t_eol_c_r[2,2] - t_ZN_c_r[2,2]
   + c_mar_row_ZN_pp_12_2_case[1] <= 0
 mar_constraint_ZN_pp_12_2_real_metal: - t_ZN_c_r[3,2]
   + c_mar_row_ZN_pp_12_2_case[1] <= 0
 mar_constraint_ZN_pp_12_2_right_edge: - t_ZN_c_r[4,2]
   + c_mar_row_ZN_pp_12_2_case[1] <= 0
 row_selection_on_off_rule1_ZN_nn_12: - 2 indicator_ZN_nn_12
   + c_mar_row_ZN_nn_12_r[1] + c_mar_row_ZN_nn_12_r[0] <= 0
 row_selection_on_off_rule2_ZN_nn_12: - 2 io_detector_ZN
   + c_mar_row_ZN_nn_12_r[1] + c_mar_row_ZN_nn_12_r[0] <= 0
 row_selection_on_off_rule3_ZN_nn_12: - indicator_ZN_nn_12 - io_detector_ZN
   + c_mar_row_ZN_nn_12_r[1] + c_mar_row_ZN_nn_12_r[0] >= -1
 case_selection_on_off_rule1_ZN_nn_12_1: - c_mar_row_ZN_nn_12_r[1]
   + c_mar_row_ZN_nn_12_1_case[0] + c_mar_row_ZN_nn_12_1_case[1] <= 0
 case_selection_on_off_rule2_ZN_nn_12_1: - c_mar_row_ZN_nn_12_r[1]
   + c_mar_row_ZN_nn_12_1_case[0] + c_mar_row_ZN_nn_12_1_case[1] >= 0
 mar_constraint_ZN_nn_12_1_left_edge: - t_eol_c_r[1,1] - t_ZN_c_r[1,1]
   + c_mar_row_ZN_nn_12_1_case[0] <= 0
 mar_constraint_ZN_nn_12_1_real_metal: - t_ZN_c_r[2,1]
   + c_mar_row_ZN_nn_12_1_case[0] <= 0
 mar_constraint_ZN_nn_12_1_real_metal: - t_ZN_c_r[3,1]
   + c_mar_row_ZN_nn_12_1_case[0] <= 0
 mar_constraint_ZN_nn_12_1_right_edge: - t_eol_c_r[4,1] - t_ZN_c_r[4,1]
   + c_mar_row_ZN_nn_12_1_case[0] <= 0
 mar_constraint_ZN_nn_12_1_left_edge: - t_eol_c_r[2,1] - t_ZN_c_r[2,1]
   + c_mar_row_ZN_nn_12_1_case[1] <= 0
 mar_constraint_ZN_nn_12_1_real_metal: - t_ZN_c_r[3,1]
   + c_mar_row_ZN_nn_12_1_case[1] <= 0
 mar_constraint_ZN_nn_12_1_right_edge: - t_ZN_c_r[4,1]
   + c_mar_row_ZN_nn_12_1_case[1] <= 0
 case_selection_on_off_rule1_ZN_nn_12_0: - c_mar_row_ZN_nn_12_r[0]
   + c_mar_row_ZN_nn_12_0_case[0] + c_mar_row_ZN_nn_12_0_case[1] <= 0
 case_selection_on_off_rule2_ZN_nn_12_0: - c_mar_row_ZN_nn_12_r[0]
   + c_mar_row_ZN_nn_12_0_case[0] + c_mar_row_ZN_nn_12_0_case[1] >= 0
 mar_constraint_ZN_nn_12_0_left_edge: - t_eol_c_r[1,0] - t_ZN_c_r[1,0]
   + c_mar_row_ZN_nn_12_0_case[0] <= 0
 mar_constraint_ZN_nn_12_0_real_metal: - t_ZN_c_r[2,0]
   + c_mar_row_ZN_nn_12_0_case[0] <= 0
 mar_constraint_ZN_nn_12_0_real_metal: - t_ZN_c_r[3,0]
   + c_mar_row_ZN_nn_12_0_case[0] <= 0
 mar_constraint_ZN_nn_12_0_right_edge: - t_eol_c_r[4,0] - t_ZN_c_r[4,0]
   + c_mar_row_ZN_nn_12_0_case[0] <= 0
 mar_constraint_ZN_nn_12_0_left_edge: - t_eol_c_r[2,0] - t_ZN_c_r[2,0]
   + c_mar_row_ZN_nn_12_0_case[1] <= 0
 mar_constraint_ZN_nn_12_0_real_metal: - t_ZN_c_r[3,0]
   + c_mar_row_ZN_nn_12_0_case[1] <= 0
 mar_constraint_ZN_nn_12_0_right_edge: - t_ZN_c_r[4,0]
   + c_mar_row_ZN_nn_12_0_case[1] <= 0
 row_selection_on_off_rule1_ZN_ac_12: - 4 indicator_ZN_ac_12
   + c_mar_row_ZN_ac_12_r[3] + c_mar_row_ZN_ac_12_r[2]
   + c_mar_row_ZN_ac_12_r[1] + c_mar_row_ZN_ac_12_r[0] <= 0
 row_selection_on_off_rule2_ZN_ac_12: - 4 io_detector_ZN
   + c_mar_row_ZN_ac_12_r[3] + c_mar_row_ZN_ac_12_r[2]
   + c_mar_row_ZN_ac_12_r[1] + c_mar_row_ZN_ac_12_r[0] <= 0
 row_selection_on_off_rule3_ZN_ac_12: - indicator_ZN_ac_12 - io_detector_ZN
   + c_mar_row_ZN_ac_12_r[3] + c_mar_row_ZN_ac_12_r[2]
   + c_mar_row_ZN_ac_12_r[1] + c_mar_row_ZN_ac_12_r[0] >= -1
 case_selection_on_off_rule1_ZN_ac_12_3: - c_mar_row_ZN_ac_12_r[3]
   + c_mar_row_ZN_ac_12_3_case[0] + c_mar_row_ZN_ac_12_3_case[1] <= 0
 case_selection_on_off_rule2_ZN_ac_12_3: - c_mar_row_ZN_ac_12_r[3]
   + c_mar_row_ZN_ac_12_3_case[0] + c_mar_row_ZN_ac_12_3_case[1] >= 0
 mar_constraint_ZN_ac_12_3_left_edge: - t_eol_c_r[1,3] - t_ZN_c_r[1,3]
   + c_mar_row_ZN_ac_12_3_case[0] <= 0
 mar_constraint_ZN_ac_12_3_real_metal: - t_ZN_c_r[2,3]
   + c_mar_row_ZN_ac_12_3_case[0] <= 0
 mar_constraint_ZN_ac_12_3_real_metal: - t_ZN_c_r[3,3]
   + c_mar_row_ZN_ac_12_3_case[0] <= 0
 mar_constraint_ZN_ac_12_3_right_edge: - t_eol_c_r[4,3] - t_ZN_c_r[4,3]
   + c_mar_row_ZN_ac_12_3_case[0] <= 0
 mar_constraint_ZN_ac_12_3_left_edge: - t_eol_c_r[2,3] - t_ZN_c_r[2,3]
   + c_mar_row_ZN_ac_12_3_case[1] <= 0
 mar_constraint_ZN_ac_12_3_real_metal: - t_ZN_c_r[3,3]
   + c_mar_row_ZN_ac_12_3_case[1] <= 0
 mar_constraint_ZN_ac_12_3_right_edge: - t_ZN_c_r[4,3]
   + c_mar_row_ZN_ac_12_3_case[1] <= 0
 case_selection_on_off_rule1_ZN_ac_12_2: - c_mar_row_ZN_ac_12_r[2]
   + c_mar_row_ZN_ac_12_2_case[0] + c_mar_row_ZN_ac_12_2_case[1] <= 0
 case_selection_on_off_rule2_ZN_ac_12_2: - c_mar_row_ZN_ac_12_r[2]
   + c_mar_row_ZN_ac_12_2_case[0] + c_mar_row_ZN_ac_12_2_case[1] >= 0
 mar_constraint_ZN_ac_12_2_left_edge: - t_eol_c_r[1,2] - t_ZN_c_r[1,2]
   + c_mar_row_ZN_ac_12_2_case[0] <= 0
 mar_constraint_ZN_ac_12_2_real_metal: - t_ZN_c_r[2,2]
   + c_mar_row_ZN_ac_12_2_case[0] <= 0
 mar_constraint_ZN_ac_12_2_real_metal: - t_ZN_c_r[3,2]
   + c_mar_row_ZN_ac_12_2_case[0] <= 0
 mar_constraint_ZN_ac_12_2_right_edge: - t_eol_c_r[4,2] - t_ZN_c_r[4,2]
   + c_mar_row_ZN_ac_12_2_case[0] <= 0
 mar_constraint_ZN_ac_12_2_left_edge: - t_eol_c_r[2,2] - t_ZN_c_r[2,2]
   + c_mar_row_ZN_ac_12_2_case[1] <= 0
 mar_constraint_ZN_ac_12_2_real_metal: - t_ZN_c_r[3,2]
   + c_mar_row_ZN_ac_12_2_case[1] <= 0
 mar_constraint_ZN_ac_12_2_right_edge: - t_ZN_c_r[4,2]
   + c_mar_row_ZN_ac_12_2_case[1] <= 0
 case_selection_on_off_rule1_ZN_ac_12_1: - c_mar_row_ZN_ac_12_r[1]
   + c_mar_row_ZN_ac_12_1_case[0] + c_mar_row_ZN_ac_12_1_case[1] <= 0
 case_selection_on_off_rule2_ZN_ac_12_1: - c_mar_row_ZN_ac_12_r[1]
   + c_mar_row_ZN_ac_12_1_case[0] + c_mar_row_ZN_ac_12_1_case[1] >= 0
 mar_constraint_ZN_ac_12_1_left_edge: - t_eol_c_r[1,1] - t_ZN_c_r[1,1]
   + c_mar_row_ZN_ac_12_1_case[0] <= 0
 mar_constraint_ZN_ac_12_1_real_metal: - t_ZN_c_r[2,1]
   + c_mar_row_ZN_ac_12_1_case[0] <= 0
 mar_constraint_ZN_ac_12_1_real_metal: - t_ZN_c_r[3,1]
   + c_mar_row_ZN_ac_12_1_case[0] <= 0
 mar_constraint_ZN_ac_12_1_right_edge: - t_eol_c_r[4,1] - t_ZN_c_r[4,1]
   + c_mar_row_ZN_ac_12_1_case[0] <= 0
 mar_constraint_ZN_ac_12_1_left_edge: - t_eol_c_r[2,1] - t_ZN_c_r[2,1]
   + c_mar_row_ZN_ac_12_1_case[1] <= 0
 mar_constraint_ZN_ac_12_1_real_metal: - t_ZN_c_r[3,1]
   + c_mar_row_ZN_ac_12_1_case[1] <= 0
 mar_constraint_ZN_ac_12_1_right_edge: - t_ZN_c_r[4,1]
   + c_mar_row_ZN_ac_12_1_case[1] <= 0
 case_selection_on_off_rule1_ZN_ac_12_0: - c_mar_row_ZN_ac_12_r[0]
   + c_mar_row_ZN_ac_12_0_case[0] + c_mar_row_ZN_ac_12_0_case[1] <= 0
 case_selection_on_off_rule2_ZN_ac_12_0: - c_mar_row_ZN_ac_12_r[0]
   + c_mar_row_ZN_ac_12_0_case[0] + c_mar_row_ZN_ac_12_0_case[1] >= 0
 mar_constraint_ZN_ac_12_0_left_edge: - t_eol_c_r[1,0] - t_ZN_c_r[1,0]
   + c_mar_row_ZN_ac_12_0_case[0] <= 0
 mar_constraint_ZN_ac_12_0_real_metal: - t_ZN_c_r[2,0]
   + c_mar_row_ZN_ac_12_0_case[0] <= 0
 mar_constraint_ZN_ac_12_0_real_metal: - t_ZN_c_r[3,0]
   + c_mar_row_ZN_ac_12_0_case[0] <= 0
 mar_constraint_ZN_ac_12_0_right_edge: - t_eol_c_r[4,0] - t_ZN_c_r[4,0]
   + c_mar_row_ZN_ac_12_0_case[0] <= 0
 mar_constraint_ZN_ac_12_0_left_edge: - t_eol_c_r[2,0] - t_ZN_c_r[2,0]
   + c_mar_row_ZN_ac_12_0_case[1] <= 0
 mar_constraint_ZN_ac_12_0_real_metal: - t_ZN_c_r[3,0]
   + c_mar_row_ZN_ac_12_0_case[1] <= 0
 mar_constraint_ZN_ac_12_0_right_edge: - t_ZN_c_r[4,0]
   + c_mar_row_ZN_ac_12_0_case[1] <= 0
 row_selection_on_off_rule1_ZN_pp_15: - 2 indicator_ZN_pp_15
   + c_mar_row_ZN_pp_15_r[3] + c_mar_row_ZN_pp_15_r[2] <= 0
 row_selection_on_off_rule2_ZN_pp_15: - 2 io_detector_ZN
   + c_mar_row_ZN_pp_15_r[3] + c_mar_row_ZN_pp_15_r[2] <= 0
 row_selection_on_off_rule3_ZN_pp_15: - indicator_ZN_pp_15 - io_detector_ZN
   + c_mar_row_ZN_pp_15_r[3] + c_mar_row_ZN_pp_15_r[2] >= -1
 case_selection_on_off_rule1_ZN_pp_15_3: - c_mar_row_ZN_pp_15_r[3]
   + c_mar_row_ZN_pp_15_3_case[0] <= 0
 case_selection_on_off_rule2_ZN_pp_15_3: - c_mar_row_ZN_pp_15_r[3]
   + c_mar_row_ZN_pp_15_3_case[0] >= 0
 mar_constraint_ZN_pp_15_3_left_edge: - t_eol_c_r[2,3] - t_ZN_c_r[2,3]
   + c_mar_row_ZN_pp_15_3_case[0] <= 0
 mar_constraint_ZN_pp_15_3_real_metal: - t_ZN_c_r[3,3]
   + c_mar_row_ZN_pp_15_3_case[0] <= 0
 mar_constraint_ZN_pp_15_3_right_edge: - t_ZN_c_r[4,3]
   + c_mar_row_ZN_pp_15_3_case[0] <= 0
 case_selection_on_off_rule1_ZN_pp_15_2: - c_mar_row_ZN_pp_15_r[2]
   + c_mar_row_ZN_pp_15_2_case[0] <= 0
 case_selection_on_off_rule2_ZN_pp_15_2: - c_mar_row_ZN_pp_15_r[2]
   + c_mar_row_ZN_pp_15_2_case[0] >= 0
 mar_constraint_ZN_pp_15_2_left_edge: - t_eol_c_r[2,2] - t_ZN_c_r[2,2]
   + c_mar_row_ZN_pp_15_2_case[0] <= 0
 mar_constraint_ZN_pp_15_2_real_metal: - t_ZN_c_r[3,2]
   + c_mar_row_ZN_pp_15_2_case[0] <= 0
 mar_constraint_ZN_pp_15_2_right_edge: - t_ZN_c_r[4,2]
   + c_mar_row_ZN_pp_15_2_case[0] <= 0
 row_selection_on_off_rule1_ZN_nn_15: - 2 indicator_ZN_nn_15
   + c_mar_row_ZN_nn_15_r[1] + c_mar_row_ZN_nn_15_r[0] <= 0
 row_selection_on_off_rule2_ZN_nn_15: - 2 io_detector_ZN
   + c_mar_row_ZN_nn_15_r[1] + c_mar_row_ZN_nn_15_r[0] <= 0
 row_selection_on_off_rule3_ZN_nn_15: - indicator_ZN_nn_15 - io_detector_ZN
   + c_mar_row_ZN_nn_15_r[1] + c_mar_row_ZN_nn_15_r[0] >= -1
 case_selection_on_off_rule1_ZN_nn_15_1: - c_mar_row_ZN_nn_15_r[1]
   + c_mar_row_ZN_nn_15_1_case[0] <= 0
 case_selection_on_off_rule2_ZN_nn_15_1: - c_mar_row_ZN_nn_15_r[1]
   + c_mar_row_ZN_nn_15_1_case[0] >= 0
 mar_constraint_ZN_nn_15_1_left_edge: - t_eol_c_r[2,1] - t_ZN_c_r[2,1]
   + c_mar_row_ZN_nn_15_1_case[0] <= 0
 mar_constraint_ZN_nn_15_1_real_metal: - t_ZN_c_r[3,1]
   + c_mar_row_ZN_nn_15_1_case[0] <= 0
 mar_constraint_ZN_nn_15_1_right_edge: - t_ZN_c_r[4,1]
   + c_mar_row_ZN_nn_15_1_case[0] <= 0
 case_selection_on_off_rule1_ZN_nn_15_0: - c_mar_row_ZN_nn_15_r[0]
   + c_mar_row_ZN_nn_15_0_case[0] <= 0
 case_selection_on_off_rule2_ZN_nn_15_0: - c_mar_row_ZN_nn_15_r[0]
   + c_mar_row_ZN_nn_15_0_case[0] >= 0
 mar_constraint_ZN_nn_15_0_left_edge: - t_eol_c_r[2,0] - t_ZN_c_r[2,0]
   + c_mar_row_ZN_nn_15_0_case[0] <= 0
 mar_constraint_ZN_nn_15_0_real_metal: - t_ZN_c_r[3,0]
   + c_mar_row_ZN_nn_15_0_case[0] <= 0
 mar_constraint_ZN_nn_15_0_right_edge: - t_ZN_c_r[4,0]
   + c_mar_row_ZN_nn_15_0_case[0] <= 0
 row_selection_on_off_rule1_ZN_ac_15: - 4 indicator_ZN_ac_15
   + c_mar_row_ZN_ac_15_r[3] + c_mar_row_ZN_ac_15_r[2]
   + c_mar_row_ZN_ac_15_r[1] + c_mar_row_ZN_ac_15_r[0] <= 0
 row_selection_on_off_rule2_ZN_ac_15: - 4 io_detector_ZN
   + c_mar_row_ZN_ac_15_r[3] + c_mar_row_ZN_ac_15_r[2]
   + c_mar_row_ZN_ac_15_r[1] + c_mar_row_ZN_ac_15_r[0] <= 0
 row_selection_on_off_rule3_ZN_ac_15: - indicator_ZN_ac_15 - io_detector_ZN
   + c_mar_row_ZN_ac_15_r[3] + c_mar_row_ZN_ac_15_r[2]
   + c_mar_row_ZN_ac_15_r[1] + c_mar_row_ZN_ac_15_r[0] >= -1
 case_selection_on_off_rule1_ZN_ac_15_3: - c_mar_row_ZN_ac_15_r[3]
   + c_mar_row_ZN_ac_15_3_case[0] <= 0
 case_selection_on_off_rule2_ZN_ac_15_3: - c_mar_row_ZN_ac_15_r[3]
   + c_mar_row_ZN_ac_15_3_case[0] >= 0
 mar_constraint_ZN_ac_15_3_left_edge: - t_eol_c_r[2,3] - t_ZN_c_r[2,3]
   + c_mar_row_ZN_ac_15_3_case[0] <= 0
 mar_constraint_ZN_ac_15_3_real_metal: - t_ZN_c_r[3,3]
   + c_mar_row_ZN_ac_15_3_case[0] <= 0
 mar_constraint_ZN_ac_15_3_right_edge: - t_ZN_c_r[4,3]
   + c_mar_row_ZN_ac_15_3_case[0] <= 0
 case_selection_on_off_rule1_ZN_ac_15_2: - c_mar_row_ZN_ac_15_r[2]
   + c_mar_row_ZN_ac_15_2_case[0] <= 0
 case_selection_on_off_rule2_ZN_ac_15_2: - c_mar_row_ZN_ac_15_r[2]
   + c_mar_row_ZN_ac_15_2_case[0] >= 0
 mar_constraint_ZN_ac_15_2_left_edge: - t_eol_c_r[2,2] - t_ZN_c_r[2,2]
   + c_mar_row_ZN_ac_15_2_case[0] <= 0
 mar_constraint_ZN_ac_15_2_real_metal: - t_ZN_c_r[3,2]
   + c_mar_row_ZN_ac_15_2_case[0] <= 0
 mar_constraint_ZN_ac_15_2_right_edge: - t_ZN_c_r[4,2]
   + c_mar_row_ZN_ac_15_2_case[0] <= 0
 case_selection_on_off_rule1_ZN_ac_15_1: - c_mar_row_ZN_ac_15_r[1]
   + c_mar_row_ZN_ac_15_1_case[0] <= 0
 case_selection_on_off_rule2_ZN_ac_15_1: - c_mar_row_ZN_ac_15_r[1]
   + c_mar_row_ZN_ac_15_1_case[0] >= 0
 mar_constraint_ZN_ac_15_1_left_edge: - t_eol_c_r[2,1] - t_ZN_c_r[2,1]
   + c_mar_row_ZN_ac_15_1_case[0] <= 0
 mar_constraint_ZN_ac_15_1_real_metal: - t_ZN_c_r[3,1]
   + c_mar_row_ZN_ac_15_1_case[0] <= 0
 mar_constraint_ZN_ac_15_1_right_edge: - t_ZN_c_r[4,1]
   + c_mar_row_ZN_ac_15_1_case[0] <= 0
 case_selection_on_off_rule1_ZN_ac_15_0: - c_mar_row_ZN_ac_15_r[0]
   + c_mar_row_ZN_ac_15_0_case[0] <= 0
 case_selection_on_off_rule2_ZN_ac_15_0: - c_mar_row_ZN_ac_15_r[0]
   + c_mar_row_ZN_ac_15_0_case[0] >= 0
 mar_constraint_ZN_ac_15_0_left_edge: - t_eol_c_r[2,0] - t_ZN_c_r[2,0]
   + c_mar_row_ZN_ac_15_0_case[0] <= 0
 mar_constraint_ZN_ac_15_0_real_metal: - t_ZN_c_r[3,0]
   + c_mar_row_ZN_ac_15_0_case[0] <= 0
 mar_constraint_ZN_ac_15_0_right_edge: - t_ZN_c_r[4,0]
   + c_mar_row_ZN_ac_15_0_case[0] <= 0
 global_zero_constraint_ZN_pv_3_pv_4_3: - indicator_ZN_pp_3
   - indicator_ZN_nn_3 - indicator_ZN_ac_3 - indicator_ZN_pp_6
   - indicator_ZN_nn_6 - indicator_ZN_ac_6 - indicator_ZN_pp_9
   - indicator_ZN_nn_9 - indicator_ZN_ac_9 - indicator_ZN_pp_12
   - indicator_ZN_nn_12 - indicator_ZN_ac_12 - indicator_ZN_pp_15
   - indicator_ZN_nn_15 - indicator_ZN_ac_15 + y_ZN_edge_pv_3_pv_4_3 <= -1
 active_c_ge_min_indicator_min_bbox_ZN_pv_3_pv_4_3: min_indicator_ZN
   + 5 y_ZN_edge_pv_3_pv_4_3 <= 6
 active_c_ge_max_bbox_min_bbox_ZN_pv_3_pv_4_3: - max_bbox_ZN
   + 5 y_ZN_edge_pv_3_pv_4_3 <= 4
 edge_flow_ub_ZN_pv_3_pv_4_3: - 2 y_ZN_edge_pv_3_pv_4_3
   + f_ZN_edge_pv_3_pv_4_3 <= 0
 edge_flow_lb_ZN_pv_3_pv_4_3: 2 y_ZN_edge_pv_3_pv_4_3
   + f_ZN_edge_pv_3_pv_4_3 >= 0
 global_zero_constraint_ZN_pv_3_pv_4_2: - indicator_ZN_pp_3
   - indicator_ZN_nn_3 - indicator_ZN_ac_3 - indicator_ZN_pp_6
   - indicator_ZN_nn_6 - indicator_ZN_ac_6 - indicator_ZN_pp_9
   - indicator_ZN_nn_9 - indicator_ZN_ac_9 - indicator_ZN_pp_12
   - indicator_ZN_nn_12 - indicator_ZN_ac_12 - indicator_ZN_pp_15
   - indicator_ZN_nn_15 - indicator_ZN_ac_15 + y_ZN_edge_pv_3_pv_4_2 <= -1
 active_c_ge_min_indicator_min_bbox_ZN_pv_3_pv_4_2: min_indicator_ZN
   + 5 y_ZN_edge_pv_3_pv_4_2 <= 6
 active_c_ge_max_bbox_min_bbox_ZN_pv_3_pv_4_2: - max_bbox_ZN
   + 5 y_ZN_edge_pv_3_pv_4_2 <= 4
 edge_flow_ub_ZN_pv_3_pv_4_2: - 2 y_ZN_edge_pv_3_pv_4_2
   + f_ZN_edge_pv_3_pv_4_2 <= 0
 edge_flow_lb_ZN_pv_3_pv_4_2: 2 y_ZN_edge_pv_3_pv_4_2
   + f_ZN_edge_pv_3_pv_4_2 >= 0
 global_zero_constraint_ZN_nv_3_nv_4_1: - indicator_ZN_pp_3
   - indicator_ZN_nn_3 - indicator_ZN_ac_3 - indicator_ZN_pp_6
   - indicator_ZN_nn_6 - indicator_ZN_ac_6 - indicator_ZN_pp_9
   - indicator_ZN_nn_9 - indicator_ZN_ac_9 - indicator_ZN_pp_12
   - indicator_ZN_nn_12 - indicator_ZN_ac_12 - indicator_ZN_pp_15
   - indicator_ZN_nn_15 - indicator_ZN_ac_15 + y_ZN_edge_nv_3_nv_4_1 <= -1
 active_c_ge_min_indicator_min_bbox_ZN_nv_3_nv_4_1: min_indicator_ZN
   + 5 y_ZN_edge_nv_3_nv_4_1 <= 6
 active_c_ge_max_bbox_min_bbox_ZN_nv_3_nv_4_1: - max_bbox_ZN
   + 5 y_ZN_edge_nv_3_nv_4_1 <= 4
 edge_flow_ub_ZN_nv_3_nv_4_1: - 2 y_ZN_edge_nv_3_nv_4_1
   + f_ZN_edge_nv_3_nv_4_1 <= 0
 edge_flow_lb_ZN_nv_3_nv_4_1: 2 y_ZN_edge_nv_3_nv_4_1
   + f_ZN_edge_nv_3_nv_4_1 >= 0
 global_zero_constraint_ZN_nv_3_nv_4_0: - indicator_ZN_pp_3
   - indicator_ZN_nn_3 - indicator_ZN_ac_3 - indicator_ZN_pp_6
   - indicator_ZN_nn_6 - indicator_ZN_ac_6 - indicator_ZN_pp_9
   - indicator_ZN_nn_9 - indicator_ZN_ac_9 - indicator_ZN_pp_12
   - indicator_ZN_nn_12 - indicator_ZN_ac_12 - indicator_ZN_pp_15
   - indicator_ZN_nn_15 - indicator_ZN_ac_15 + y_ZN_edge_nv_3_nv_4_0 <= -1
 active_c_ge_min_indicator_min_bbox_ZN_nv_3_nv_4_0: min_indicator_ZN
   + 5 y_ZN_edge_nv_3_nv_4_0 <= 6
 active_c_ge_max_bbox_min_bbox_ZN_nv_3_nv_4_0: - max_bbox_ZN
   + 5 y_ZN_edge_nv_3_nv_4_0 <= 4
 edge_flow_ub_ZN_nv_3_nv_4_0: - 2 y_ZN_edge_nv_3_nv_4_0
   + f_ZN_edge_nv_3_nv_4_0 <= 0
 edge_flow_lb_ZN_nv_3_nv_4_0: 2 y_ZN_edge_nv_3_nv_4_0
   + f_ZN_edge_nv_3_nv_4_0 >= 0
 global_zero_constraint_ZN_pv_4_pv_6_3: - indicator_ZN_pp_3
   - indicator_ZN_nn_3 - indicator_ZN_ac_3 - indicator_ZN_pp_6
   - indicator_ZN_nn_6 - indicator_ZN_ac_6 - indicator_ZN_pp_9
   - indicator_ZN_nn_9 - indicator_ZN_ac_9 - indicator_ZN_pp_12
   - indicator_ZN_nn_12 - indicator_ZN_ac_12 - indicator_ZN_pp_15
   - indicator_ZN_nn_15 - indicator_ZN_ac_15 + y_ZN_edge_pv_4_pv_6_3 <= -1
 active_c_ge_min_indicator_min_bbox_ZN_pv_4_pv_6_3: min_indicator_ZN
   + 5 y_ZN_edge_pv_4_pv_6_3 <= 6
 active_c_ge_max_bbox_min_bbox_ZN_pv_4_pv_6_3: - max_bbox_ZN
   + 5 y_ZN_edge_pv_4_pv_6_3 <= 4
 edge_flow_ub_ZN_pv_4_pv_6_3: - 2 y_ZN_edge_pv_4_pv_6_3
   + f_ZN_edge_pv_4_pv_6_3 <= 0
 edge_flow_lb_ZN_pv_4_pv_6_3: 2 y_ZN_edge_pv_4_pv_6_3
   + f_ZN_edge_pv_4_pv_6_3 >= 0
 global_zero_constraint_ZN_pv_4_pv_6_2: - indicator_ZN_pp_3
   - indicator_ZN_nn_3 - indicator_ZN_ac_3 - indicator_ZN_pp_6
   - indicator_ZN_nn_6 - indicator_ZN_ac_6 - indicator_ZN_pp_9
   - indicator_ZN_nn_9 - indicator_ZN_ac_9 - indicator_ZN_pp_12
   - indicator_ZN_nn_12 - indicator_ZN_ac_12 - indicator_ZN_pp_15
   - indicator_ZN_nn_15 - indicator_ZN_ac_15 + y_ZN_edge_pv_4_pv_6_2 <= -1
 active_c_ge_min_indicator_min_bbox_ZN_pv_4_pv_6_2: min_indicator_ZN
   + 5 y_ZN_edge_pv_4_pv_6_2 <= 6
 active_c_ge_max_bbox_min_bbox_ZN_pv_4_pv_6_2: - max_bbox_ZN
   + 5 y_ZN_edge_pv_4_pv_6_2 <= 4
 edge_flow_ub_ZN_pv_4_pv_6_2: - 2 y_ZN_edge_pv_4_pv_6_2
   + f_ZN_edge_pv_4_pv_6_2 <= 0
 edge_flow_lb_ZN_pv_4_pv_6_2: 2 y_ZN_edge_pv_4_pv_6_2
   + f_ZN_edge_pv_4_pv_6_2 >= 0
 global_zero_constraint_ZN_nv_4_nv_6_1: - indicator_ZN_pp_3
   - indicator_ZN_nn_3 - indicator_ZN_ac_3 - indicator_ZN_pp_6
   - indicator_ZN_nn_6 - indicator_ZN_ac_6 - indicator_ZN_pp_9
   - indicator_ZN_nn_9 - indicator_ZN_ac_9 - indicator_ZN_pp_12
   - indicator_ZN_nn_12 - indicator_ZN_ac_12 - indicator_ZN_pp_15
   - indicator_ZN_nn_15 - indicator_ZN_ac_15 + y_ZN_edge_nv_4_nv_6_1 <= -1
 active_c_ge_min_indicator_min_bbox_ZN_nv_4_nv_6_1: min_indicator_ZN
   + 5 y_ZN_edge_nv_4_nv_6_1 <= 6
 active_c_ge_max_bbox_min_bbox_ZN_nv_4_nv_6_1: - max_bbox_ZN
   + 5 y_ZN_edge_nv_4_nv_6_1 <= 4
 edge_flow_ub_ZN_nv_4_nv_6_1: - 2 y_ZN_edge_nv_4_nv_6_1
   + f_ZN_edge_nv_4_nv_6_1 <= 0
 edge_flow_lb_ZN_nv_4_nv_6_1: 2 y_ZN_edge_nv_4_nv_6_1
   + f_ZN_edge_nv_4_nv_6_1 >= 0
 global_zero_constraint_ZN_nv_4_nv_6_0: - indicator_ZN_pp_3
   - indicator_ZN_nn_3 - indicator_ZN_ac_3 - indicator_ZN_pp_6
   - indicator_ZN_nn_6 - indicator_ZN_ac_6 - indicator_ZN_pp_9
   - indicator_ZN_nn_9 - indicator_ZN_ac_9 - indicator_ZN_pp_12
   - indicator_ZN_nn_12 - indicator_ZN_ac_12 - indicator_ZN_pp_15
   - indicator_ZN_nn_15 - indicator_ZN_ac_15 + y_ZN_edge_nv_4_nv_6_0 <= -1
 active_c_ge_min_indicator_min_bbox_ZN_nv_4_nv_6_0: min_indicator_ZN
   + 5 y_ZN_edge_nv_4_nv_6_0 <= 6
 active_c_ge_max_bbox_min_bbox_ZN_nv_4_nv_6_0: - max_bbox_ZN
   + 5 y_ZN_edge_nv_4_nv_6_0 <= 4
 edge_flow_ub_ZN_nv_4_nv_6_0: - 2 y_ZN_edge_nv_4_nv_6_0
   + f_ZN_edge_nv_4_nv_6_0 <= 0
 edge_flow_lb_ZN_nv_4_nv_6_0: 2 y_ZN_edge_nv_4_nv_6_0
   + f_ZN_edge_nv_4_nv_6_0 >= 0
 global_zero_constraint_ZN_pv_6_pv_8_3: - indicator_ZN_pp_3
   - indicator_ZN_nn_3 - indicator_ZN_ac_3 - indicator_ZN_pp_6
   - indicator_ZN_nn_6 - indicator_ZN_ac_6 - indicator_ZN_pp_9
   - indicator_ZN_nn_9 - indicator_ZN_ac_9 - indicator_ZN_pp_12
   - indicator_ZN_nn_12 - indicator_ZN_ac_12 - indicator_ZN_pp_15
   - indicator_ZN_nn_15 - indicator_ZN_ac_15 + y_ZN_edge_pv_6_pv_8_3 <= -1
 active_c_ge_min_indicator_min_bbox_ZN_pv_6_pv_8_3: min_indicator_ZN
   + 5 y_ZN_edge_pv_6_pv_8_3 <= 7
 active_c_ge_max_bbox_min_bbox_ZN_pv_6_pv_8_3: - max_bbox_ZN
   + 5 y_ZN_edge_pv_6_pv_8_3 <= 3
 edge_flow_ub_ZN_pv_6_pv_8_3: - 2 y_ZN_edge_pv_6_pv_8_3
   + f_ZN_edge_pv_6_pv_8_3 <= 0
 edge_flow_lb_ZN_pv_6_pv_8_3: 2 y_ZN_edge_pv_6_pv_8_3
   + f_ZN_edge_pv_6_pv_8_3 >= 0
 global_zero_constraint_ZN_pv_6_pv_8_2: - indicator_ZN_pp_3
   - indicator_ZN_nn_3 - indicator_ZN_ac_3 - indicator_ZN_pp_6
   - indicator_ZN_nn_6 - indicator_ZN_ac_6 - indicator_ZN_pp_9
   - indicator_ZN_nn_9 - indicator_ZN_ac_9 - indicator_ZN_pp_12
   - indicator_ZN_nn_12 - indicator_ZN_ac_12 - indicator_ZN_pp_15
   - indicator_ZN_nn_15 - indicator_ZN_ac_15 + y_ZN_edge_pv_6_pv_8_2 <= -1
 active_c_ge_min_indicator_min_bbox_ZN_pv_6_pv_8_2: min_indicator_ZN
   + 5 y_ZN_edge_pv_6_pv_8_2 <= 7
 active_c_ge_max_bbox_min_bbox_ZN_pv_6_pv_8_2: - max_bbox_ZN
   + 5 y_ZN_edge_pv_6_pv_8_2 <= 3
 edge_flow_ub_ZN_pv_6_pv_8_2: - 2 y_ZN_edge_pv_6_pv_8_2
   + f_ZN_edge_pv_6_pv_8_2 <= 0
 edge_flow_lb_ZN_pv_6_pv_8_2: 2 y_ZN_edge_pv_6_pv_8_2
   + f_ZN_edge_pv_6_pv_8_2 >= 0
 global_zero_constraint_ZN_nv_6_nv_8_1: - indicator_ZN_pp_3
   - indicator_ZN_nn_3 - indicator_ZN_ac_3 - indicator_ZN_pp_6
   - indicator_ZN_nn_6 - indicator_ZN_ac_6 - indicator_ZN_pp_9
   - indicator_ZN_nn_9 - indicator_ZN_ac_9 - indicator_ZN_pp_12
   - indicator_ZN_nn_12 - indicator_ZN_ac_12 - indicator_ZN_pp_15
   - indicator_ZN_nn_15 - indicator_ZN_ac_15 + y_ZN_edge_nv_6_nv_8_1 <= -1
 active_c_ge_min_indicator_min_bbox_ZN_nv_6_nv_8_1: min_indicator_ZN
   + 5 y_ZN_edge_nv_6_nv_8_1 <= 7
 active_c_ge_max_bbox_min_bbox_ZN_nv_6_nv_8_1: - max_bbox_ZN
   + 5 y_ZN_edge_nv_6_nv_8_1 <= 3
 edge_flow_ub_ZN_nv_6_nv_8_1: - 2 y_ZN_edge_nv_6_nv_8_1
   + f_ZN_edge_nv_6_nv_8_1 <= 0
 edge_flow_lb_ZN_nv_6_nv_8_1: 2 y_ZN_edge_nv_6_nv_8_1
   + f_ZN_edge_nv_6_nv_8_1 >= 0
 global_zero_constraint_ZN_nv_6_nv_8_0: - indicator_ZN_pp_3
   - indicator_ZN_nn_3 - indicator_ZN_ac_3 - indicator_ZN_pp_6
   - indicator_ZN_nn_6 - indicator_ZN_ac_6 - indicator_ZN_pp_9
   - indicator_ZN_nn_9 - indicator_ZN_ac_9 - indicator_ZN_pp_12
   - indicator_ZN_nn_12 - indicator_ZN_ac_12 - indicator_ZN_pp_15
   - indicator_ZN_nn_15 - indicator_ZN_ac_15 + y_ZN_edge_nv_6_nv_8_0 <= -1
 active_c_ge_min_indicator_min_bbox_ZN_nv_6_nv_8_0: min_indicator_ZN
   + 5 y_ZN_edge_nv_6_nv_8_0 <= 7
 active_c_ge_max_bbox_min_bbox_ZN_nv_6_nv_8_0: - max_bbox_ZN
   + 5 y_ZN_edge_nv_6_nv_8_0 <= 3
 edge_flow_ub_ZN_nv_6_nv_8_0: - 2 y_ZN_edge_nv_6_nv_8_0
   + f_ZN_edge_nv_6_nv_8_0 <= 0
 edge_flow_lb_ZN_nv_6_nv_8_0: 2 y_ZN_edge_nv_6_nv_8_0
   + f_ZN_edge_nv_6_nv_8_0 >= 0
 global_zero_constraint_ZN_pv_8_pv_9_3: - indicator_ZN_pp_3
   - indicator_ZN_nn_3 - indicator_ZN_ac_3 - indicator_ZN_pp_6
   - indicator_ZN_nn_6 - indicator_ZN_ac_6 - indicator_ZN_pp_9
   - indicator_ZN_nn_9 - indicator_ZN_ac_9 - indicator_ZN_pp_12
   - indicator_ZN_nn_12 - indicator_ZN_ac_12 - indicator_ZN_pp_15
   - indicator_ZN_nn_15 - indicator_ZN_ac_15 + y_ZN_edge_pv_8_pv_9_3 <= -1
 active_c_ge_min_indicator_min_bbox_ZN_pv_8_pv_9_3: min_indicator_ZN
   + 5 y_ZN_edge_pv_8_pv_9_3 <= 7
 active_c_ge_max_bbox_min_bbox_ZN_pv_8_pv_9_3: - max_bbox_ZN
   + 5 y_ZN_edge_pv_8_pv_9_3 <= 3
 edge_flow_ub_ZN_pv_8_pv_9_3: - 2 y_ZN_edge_pv_8_pv_9_3
   + f_ZN_edge_pv_8_pv_9_3 <= 0
 edge_flow_lb_ZN_pv_8_pv_9_3: 2 y_ZN_edge_pv_8_pv_9_3
   + f_ZN_edge_pv_8_pv_9_3 >= 0
 global_zero_constraint_ZN_pv_8_pv_9_2: - indicator_ZN_pp_3
   - indicator_ZN_nn_3 - indicator_ZN_ac_3 - indicator_ZN_pp_6
   - indicator_ZN_nn_6 - indicator_ZN_ac_6 - indicator_ZN_pp_9
   - indicator_ZN_nn_9 - indicator_ZN_ac_9 - indicator_ZN_pp_12
   - indicator_ZN_nn_12 - indicator_ZN_ac_12 - indicator_ZN_pp_15
   - indicator_ZN_nn_15 - indicator_ZN_ac_15 + y_ZN_edge_pv_8_pv_9_2 <= -1
 active_c_ge_min_indicator_min_bbox_ZN_pv_8_pv_9_2: min_indicator_ZN
   + 5 y_ZN_edge_pv_8_pv_9_2 <= 7
 active_c_ge_max_bbox_min_bbox_ZN_pv_8_pv_9_2: - max_bbox_ZN
   + 5 y_ZN_edge_pv_8_pv_9_2 <= 3
 edge_flow_ub_ZN_pv_8_pv_9_2: - 2 y_ZN_edge_pv_8_pv_9_2
   + f_ZN_edge_pv_8_pv_9_2 <= 0
 edge_flow_lb_ZN_pv_8_pv_9_2: 2 y_ZN_edge_pv_8_pv_9_2
   + f_ZN_edge_pv_8_pv_9_2 >= 0
 global_zero_constraint_ZN_nv_8_nv_9_1: - indicator_ZN_pp_3
   - indicator_ZN_nn_3 - indicator_ZN_ac_3 - indicator_ZN_pp_6
   - indicator_ZN_nn_6 - indicator_ZN_ac_6 - indicator_ZN_pp_9
   - indicator_ZN_nn_9 - indicator_ZN_ac_9 - indicator_ZN_pp_12
   - indicator_ZN_nn_12 - indicator_ZN_ac_12 - indicator_ZN_pp_15
   - indicator_ZN_nn_15 - indicator_ZN_ac_15 + y_ZN_edge_nv_8_nv_9_1 <= -1
 active_c_ge_min_indicator_min_bbox_ZN_nv_8_nv_9_1: min_indicator_ZN
   + 5 y_ZN_edge_nv_8_nv_9_1 <= 7
 active_c_ge_max_bbox_min_bbox_ZN_nv_8_nv_9_1: - max_bbox_ZN
   + 5 y_ZN_edge_nv_8_nv_9_1 <= 3
 edge_flow_ub_ZN_nv_8_nv_9_1: - 2 y_ZN_edge_nv_8_nv_9_1
   + f_ZN_edge_nv_8_nv_9_1 <= 0
 edge_flow_lb_ZN_nv_8_nv_9_1: 2 y_ZN_edge_nv_8_nv_9_1
   + f_ZN_edge_nv_8_nv_9_1 >= 0
 global_zero_constraint_ZN_nv_8_nv_9_0: - indicator_ZN_pp_3
   - indicator_ZN_nn_3 - indicator_ZN_ac_3 - indicator_ZN_pp_6
   - indicator_ZN_nn_6 - indicator_ZN_ac_6 - indicator_ZN_pp_9
   - indicator_ZN_nn_9 - indicator_ZN_ac_9 - indicator_ZN_pp_12
   - indicator_ZN_nn_12 - indicator_ZN_ac_12 - indicator_ZN_pp_15
   - indicator_ZN_nn_15 - indicator_ZN_ac_15 + y_ZN_edge_nv_8_nv_9_0 <= -1
 active_c_ge_min_indicator_min_bbox_ZN_nv_8_nv_9_0: min_indicator_ZN
   + 5 y_ZN_edge_nv_8_nv_9_0 <= 7
 active_c_ge_max_bbox_min_bbox_ZN_nv_8_nv_9_0: - max_bbox_ZN
   + 5 y_ZN_edge_nv_8_nv_9_0 <= 3
 edge_flow_ub_ZN_nv_8_nv_9_0: - 2 y_ZN_edge_nv_8_nv_9_0
   + f_ZN_edge_nv_8_nv_9_0 <= 0
 edge_flow_lb_ZN_nv_8_nv_9_0: 2 y_ZN_edge_nv_8_nv_9_0
   + f_ZN_edge_nv_8_nv_9_0 >= 0
 global_zero_constraint_ZN_pv_9_pv_12_3: - indicator_ZN_pp_3
   - indicator_ZN_nn_3 - indicator_ZN_ac_3 - indicator_ZN_pp_6
   - indicator_ZN_nn_6 - indicator_ZN_ac_6 - indicator_ZN_pp_9
   - indicator_ZN_nn_9 - indicator_ZN_ac_9 - indicator_ZN_pp_12
   - indicator_ZN_nn_12 - indicator_ZN_ac_12 - indicator_ZN_pp_15
   - indicator_ZN_nn_15 - indicator_ZN_ac_15 + y_ZN_edge_pv_9_pv_12_3
   <= -1
 active_c_ge_min_indicator_min_bbox_ZN_pv_9_pv_12_3: min_indicator_ZN
   + 5 y_ZN_edge_pv_9_pv_12_3 <= 8
 active_c_ge_max_bbox_min_bbox_ZN_pv_9_pv_12_3: - max_bbox_ZN
   + 5 y_ZN_edge_pv_9_pv_12_3 <= 2
 edge_flow_ub_ZN_pv_9_pv_12_3: - 2 y_ZN_edge_pv_9_pv_12_3
   + f_ZN_edge_pv_9_pv_12_3 <= 0
 edge_flow_lb_ZN_pv_9_pv_12_3: 2 y_ZN_edge_pv_9_pv_12_3
   + f_ZN_edge_pv_9_pv_12_3 >= 0
 global_zero_constraint_ZN_pv_9_pv_12_2: - indicator_ZN_pp_3
   - indicator_ZN_nn_3 - indicator_ZN_ac_3 - indicator_ZN_pp_6
   - indicator_ZN_nn_6 - indicator_ZN_ac_6 - indicator_ZN_pp_9
   - indicator_ZN_nn_9 - indicator_ZN_ac_9 - indicator_ZN_pp_12
   - indicator_ZN_nn_12 - indicator_ZN_ac_12 - indicator_ZN_pp_15
   - indicator_ZN_nn_15 - indicator_ZN_ac_15 + y_ZN_edge_pv_9_pv_12_2
   <= -1
 active_c_ge_min_indicator_min_bbox_ZN_pv_9_pv_12_2: min_indicator_ZN
   + 5 y_ZN_edge_pv_9_pv_12_2 <= 8
 active_c_ge_max_bbox_min_bbox_ZN_pv_9_pv_12_2: - max_bbox_ZN
   + 5 y_ZN_edge_pv_9_pv_12_2 <= 2
 edge_flow_ub_ZN_pv_9_pv_12_2: - 2 y_ZN_edge_pv_9_pv_12_2
   + f_ZN_edge_pv_9_pv_12_2 <= 0
 edge_flow_lb_ZN_pv_9_pv_12_2: 2 y_ZN_edge_pv_9_pv_12_2
   + f_ZN_edge_pv_9_pv_12_2 >= 0
 global_zero_constraint_ZN_nv_9_nv_12_1: - indicator_ZN_pp_3
   - indicator_ZN_nn_3 - indicator_ZN_ac_3 - indicator_ZN_pp_6
   - indicator_ZN_nn_6 - indicator_ZN_ac_6 - indicator_ZN_pp_9
   - indicator_ZN_nn_9 - indicator_ZN_ac_9 - indicator_ZN_pp_12
   - indicator_ZN_nn_12 - indicator_ZN_ac_12 - indicator_ZN_pp_15
   - indicator_ZN_nn_15 - indicator_ZN_ac_15 + y_ZN_edge_nv_9_nv_12_1
   <= -1
 active_c_ge_min_indicator_min_bbox_ZN_nv_9_nv_12_1: min_indicator_ZN
   + 5 y_ZN_edge_nv_9_nv_12_1 <= 8
 active_c_ge_max_bbox_min_bbox_ZN_nv_9_nv_12_1: - max_bbox_ZN
   + 5 y_ZN_edge_nv_9_nv_12_1 <= 2
 edge_flow_ub_ZN_nv_9_nv_12_1: - 2 y_ZN_edge_nv_9_nv_12_1
   + f_ZN_edge_nv_9_nv_12_1 <= 0
 edge_flow_lb_ZN_nv_9_nv_12_1: 2 y_ZN_edge_nv_9_nv_12_1
   + f_ZN_edge_nv_9_nv_12_1 >= 0
 global_zero_constraint_ZN_nv_9_nv_12_0: - indicator_ZN_pp_3
   - indicator_ZN_nn_3 - indicator_ZN_ac_3 - indicator_ZN_pp_6
   - indicator_ZN_nn_6 - indicator_ZN_ac_6 - indicator_ZN_pp_9
   - indicator_ZN_nn_9 - indicator_ZN_ac_9 - indicator_ZN_pp_12
   - indicator_ZN_nn_12 - indicator_ZN_ac_12 - indicator_ZN_pp_15
   - indicator_ZN_nn_15 - indicator_ZN_ac_15 + y_ZN_edge_nv_9_nv_12_0
   <= -1
 active_c_ge_min_indicator_min_bbox_ZN_nv_9_nv_12_0: min_indicator_ZN
   + 5 y_ZN_edge_nv_9_nv_12_0 <= 8
 active_c_ge_max_bbox_min_bbox_ZN_nv_9_nv_12_0: - max_bbox_ZN
   + 5 y_ZN_edge_nv_9_nv_12_0 <= 2
 edge_flow_ub_ZN_nv_9_nv_12_0: - 2 y_ZN_edge_nv_9_nv_12_0
   + f_ZN_edge_nv_9_nv_12_0 <= 0
 edge_flow_lb_ZN_nv_9_nv_12_0: 2 y_ZN_edge_nv_9_nv_12_0
   + f_ZN_edge_nv_9_nv_12_0 >= 0
 global_zero_constraint_ZN_pv_12_pv_15_3: - indicator_ZN_pp_3
   - indicator_ZN_nn_3 - indicator_ZN_ac_3 - indicator_ZN_pp_6
   - indicator_ZN_nn_6 - indicator_ZN_ac_6 - indicator_ZN_pp_9
   - indicator_ZN_nn_9 - indicator_ZN_ac_9 - indicator_ZN_pp_12
   - indicator_ZN_nn_12 - indicator_ZN_ac_12 - indicator_ZN_pp_15
   - indicator_ZN_nn_15 - indicator_ZN_ac_15 + y_ZN_edge_pv_12_pv_15_3
   <= -1
 active_c_ge_min_indicator_min_bbox_ZN_pv_12_pv_15_3: min_indicator_ZN
   + 5 y_ZN_edge_pv_12_pv_15_3 <= 9
 active_c_ge_max_bbox_min_bbox_ZN_pv_12_pv_15_3: - max_bbox_ZN
   + 5 y_ZN_edge_pv_12_pv_15_3 <= 1
 edge_flow_ub_ZN_pv_12_pv_15_3: - 2 y_ZN_edge_pv_12_pv_15_3
   + f_ZN_edge_pv_12_pv_15_3 <= 0
 edge_flow_lb_ZN_pv_12_pv_15_3: 2 y_ZN_edge_pv_12_pv_15_3
   + f_ZN_edge_pv_12_pv_15_3 >= 0
 global_zero_constraint_ZN_pv_12_pv_15_2: - indicator_ZN_pp_3
   - indicator_ZN_nn_3 - indicator_ZN_ac_3 - indicator_ZN_pp_6
   - indicator_ZN_nn_6 - indicator_ZN_ac_6 - indicator_ZN_pp_9
   - indicator_ZN_nn_9 - indicator_ZN_ac_9 - indicator_ZN_pp_12
   - indicator_ZN_nn_12 - indicator_ZN_ac_12 - indicator_ZN_pp_15
   - indicator_ZN_nn_15 - indicator_ZN_ac_15 + y_ZN_edge_pv_12_pv_15_2
   <= -1
 active_c_ge_min_indicator_min_bbox_ZN_pv_12_pv_15_2: min_indicator_ZN
   + 5 y_ZN_edge_pv_12_pv_15_2 <= 9
 active_c_ge_max_bbox_min_bbox_ZN_pv_12_pv_15_2: - max_bbox_ZN
   + 5 y_ZN_edge_pv_12_pv_15_2 <= 1
 edge_flow_ub_ZN_pv_12_pv_15_2: - 2 y_ZN_edge_pv_12_pv_15_2
   + f_ZN_edge_pv_12_pv_15_2 <= 0
 edge_flow_lb_ZN_pv_12_pv_15_2: 2 y_ZN_edge_pv_12_pv_15_2
   + f_ZN_edge_pv_12_pv_15_2 >= 0
 global_zero_constraint_ZN_nv_12_nv_15_1: - indicator_ZN_pp_3
   - indicator_ZN_nn_3 - indicator_ZN_ac_3 - indicator_ZN_pp_6
   - indicator_ZN_nn_6 - indicator_ZN_ac_6 - indicator_ZN_pp_9
   - indicator_ZN_nn_9 - indicator_ZN_ac_9 - indicator_ZN_pp_12
   - indicator_ZN_nn_12 - indicator_ZN_ac_12 - indicator_ZN_pp_15
   - indicator_ZN_nn_15 - indicator_ZN_ac_15 + y_ZN_edge_nv_12_nv_15_1
   <= -1
 active_c_ge_min_indicator_min_bbox_ZN_nv_12_nv_15_1: min_indicator_ZN
   + 5 y_ZN_edge_nv_12_nv_15_1 <= 9
 active_c_ge_max_bbox_min_bbox_ZN_nv_12_nv_15_1: - max_bbox_ZN
   + 5 y_ZN_edge_nv_12_nv_15_1 <= 1
 edge_flow_ub_ZN_nv_12_nv_15_1: - 2 y_ZN_edge_nv_12_nv_15_1
   + f_ZN_edge_nv_12_nv_15_1 <= 0
 edge_flow_lb_ZN_nv_12_nv_15_1: 2 y_ZN_edge_nv_12_nv_15_1
   + f_ZN_edge_nv_12_nv_15_1 >= 0
 global_zero_constraint_ZN_nv_12_nv_15_0: - indicator_ZN_pp_3
   - indicator_ZN_nn_3 - indicator_ZN_ac_3 - indicator_ZN_pp_6
   - indicator_ZN_nn_6 - indicator_ZN_ac_6 - indicator_ZN_pp_9
   - indicator_ZN_nn_9 - indicator_ZN_ac_9 - indicator_ZN_pp_12
   - indicator_ZN_nn_12 - indicator_ZN_ac_12 - indicator_ZN_pp_15
   - indicator_ZN_nn_15 - indicator_ZN_ac_15 + y_ZN_edge_nv_12_nv_15_0
   <= -1
 active_c_ge_min_indicator_min_bbox_ZN_nv_12_nv_15_0: min_indicator_ZN
   + 5 y_ZN_edge_nv_12_nv_15_0 <= 9
 active_c_ge_max_bbox_min_bbox_ZN_nv_12_nv_15_0: - max_bbox_ZN
   + 5 y_ZN_edge_nv_12_nv_15_0 <= 1
 edge_flow_ub_ZN_nv_12_nv_15_0: - 2 y_ZN_edge_nv_12_nv_15_0
   + f_ZN_edge_nv_12_nv_15_0 <= 0
 edge_flow_lb_ZN_nv_12_nv_15_0: 2 y_ZN_edge_nv_12_nv_15_0
   + f_ZN_edge_nv_12_nv_15_0 >= 0
 global_zero_constraint_ZN_m1_4_pv_4_ve: - indicator_ZN_pp_3
   - indicator_ZN_nn_3 - indicator_ZN_ac_3 - indicator_ZN_pp_6
   - indicator_ZN_nn_6 - indicator_ZN_ac_6 - indicator_ZN_pp_9
   - indicator_ZN_nn_9 - indicator_ZN_ac_9 - indicator_ZN_pp_12
   - indicator_ZN_nn_12 - indicator_ZN_ac_12 - indicator_ZN_pp_15
   - indicator_ZN_nn_15 - indicator_ZN_ac_15
   + y_ZN_edge_via_enable_m1_4_pv_4 <= -1
 active_c_ge_min_indicator_min_one_ZN_m1_4_pv_4_ve: min_indicator_ZN
   + 5 y_ZN_edge_via_enable_m1_4_pv_4 <= 6
 active_c_ge_max_bbox_min_bbox_ZN_m1_4_pv_4_ve: - max_bbox_ZN
   + 5 y_ZN_edge_via_enable_m1_4_pv_4 <= 4
 edge_flow_ub_ZN_m1_4_pv_4_ve: - 2 y_ZN_edge_via_enable_m1_4_pv_4
   + f_ZN_edge_via_enable_m1_4_pv_4 <= 0
 edge_flow_lb_ZN_m1_4_pv_4_ve: 2 y_ZN_edge_via_enable_m1_4_pv_4
   + f_ZN_edge_via_enable_m1_4_pv_4 >= 0
 global_zero_constraint_ZN_m1_4_nv_4_ve: - indicator_ZN_pp_3
   - indicator_ZN_nn_3 - indicator_ZN_ac_3 - indicator_ZN_pp_6
   - indicator_ZN_nn_6 - indicator_ZN_ac_6 - indicator_ZN_pp_9
   - indicator_ZN_nn_9 - indicator_ZN_ac_9 - indicator_ZN_pp_12
   - indicator_ZN_nn_12 - indicator_ZN_ac_12 - indicator_ZN_pp_15
   - indicator_ZN_nn_15 - indicator_ZN_ac_15
   + y_ZN_edge_via_enable_m1_4_nv_4 <= -1
 active_c_ge_min_indicator_min_one_ZN_m1_4_nv_4_ve: min_indicator_ZN
   + 5 y_ZN_edge_via_enable_m1_4_nv_4 <= 6
 active_c_ge_max_bbox_min_bbox_ZN_m1_4_nv_4_ve: - max_bbox_ZN
   + 5 y_ZN_edge_via_enable_m1_4_nv_4 <= 4
 edge_flow_ub_ZN_m1_4_nv_4_ve: - 2 y_ZN_edge_via_enable_m1_4_nv_4
   + f_ZN_edge_via_enable_m1_4_nv_4 <= 0
 edge_flow_lb_ZN_m1_4_nv_4_ve: 2 y_ZN_edge_via_enable_m1_4_nv_4
   + f_ZN_edge_via_enable_m1_4_nv_4 >= 0
 global_zero_constraint_ZN_m1_4_m1_8_7: - indicator_ZN_pp_3
   - indicator_ZN_nn_3 - indicator_ZN_ac_3 - indicator_ZN_pp_6
   - indicator_ZN_nn_6 - indicator_ZN_ac_6 - indicator_ZN_pp_9
   - indicator_ZN_nn_9 - indicator_ZN_ac_9 - indicator_ZN_pp_12
   - indicator_ZN_nn_12 - indicator_ZN_ac_12 - indicator_ZN_pp_15
   - indicator_ZN_nn_15 - indicator_ZN_ac_15 + y_ZN_edge_m1_4_m1_8_r_7
   <= -1
 active_c_ge_min_indicator_min_one_ZN_m1_4_m1_8_7: min_indicator_ZN
   + 5 y_ZN_edge_m1_4_m1_8_r_7 <= 7
 active_c_ge_max_bbox_min_bbox_ZN_m1_4_m1_8_7: - max_bbox_ZN
   + 5 y_ZN_edge_m1_4_m1_8_r_7 <= 3
 edge_flow_ub_ZN_m1_4_m1_8_7: - 2 y_ZN_edge_m1_4_m1_8_r_7
   + f_ZN_edge_m1_4_m1_8_r_7 <= 0
 edge_flow_lb_ZN_m1_4_m1_8_7: 2 y_ZN_edge_m1_4_m1_8_r_7
   + f_ZN_edge_m1_4_m1_8_r_7 >= 0
 global_zero_constraint_ZN_m1_4_m1_8_6: - indicator_ZN_pp_3
   - indicator_ZN_nn_3 - indicator_ZN_ac_3 - indicator_ZN_pp_6
   - indicator_ZN_nn_6 - indicator_ZN_ac_6 - indicator_ZN_pp_9
   - indicator_ZN_nn_9 - indicator_ZN_ac_9 - indicator_ZN_pp_12
   - indicator_ZN_nn_12 - indicator_ZN_ac_12 - indicator_ZN_pp_15
   - indicator_ZN_nn_15 - indicator_ZN_ac_15 + y_ZN_edge_m1_4_m1_8_r_6
   <= -1
 active_c_ge_min_indicator_min_one_ZN_m1_4_m1_8_6: min_indicator_ZN
   + 5 y_ZN_edge_m1_4_m1_8_r_6 <= 7
 active_c_ge_max_bbox_min_bbox_ZN_m1_4_m1_8_6: - max_bbox_ZN
   + 5 y_ZN_edge_m1_4_m1_8_r_6 <= 3
 edge_flow_ub_ZN_m1_4_m1_8_6: - 2 y_ZN_edge_m1_4_m1_8_r_6
   + f_ZN_edge_m1_4_m1_8_r_6 <= 0
 edge_flow_lb_ZN_m1_4_m1_8_6: 2 y_ZN_edge_m1_4_m1_8_r_6
   + f_ZN_edge_m1_4_m1_8_r_6 >= 0
 global_zero_constraint_ZN_m1_4_m1_8_5: - indicator_ZN_pp_3
   - indicator_ZN_nn_3 - indicator_ZN_ac_3 - indicator_ZN_pp_6
   - indicator_ZN_nn_6 - indicator_ZN_ac_6 - indicator_ZN_pp_9
   - indicator_ZN_nn_9 - indicator_ZN_ac_9 - indicator_ZN_pp_12
   - indicator_ZN_nn_12 - indicator_ZN_ac_12 - indicator_ZN_pp_15
   - indicator_ZN_nn_15 - indicator_ZN_ac_15 + y_ZN_edge_m1_4_m1_8_r_5
   <= -1
 active_c_ge_min_indicator_min_one_ZN_m1_4_m1_8_5: min_indicator_ZN
   + 5 y_ZN_edge_m1_4_m1_8_r_5 <= 7
 active_c_ge_max_bbox_min_bbox_ZN_m1_4_m1_8_5: - max_bbox_ZN
   + 5 y_ZN_edge_m1_4_m1_8_r_5 <= 3
 edge_flow_ub_ZN_m1_4_m1_8_5: - 2 y_ZN_edge_m1_4_m1_8_r_5
   + f_ZN_edge_m1_4_m1_8_r_5 <= 0
 edge_flow_lb_ZN_m1_4_m1_8_5: 2 y_ZN_edge_m1_4_m1_8_r_5
   + f_ZN_edge_m1_4_m1_8_r_5 >= 0
 global_zero_constraint_ZN_m1_4_m1_8_4: - indicator_ZN_pp_3
   - indicator_ZN_nn_3 - indicator_ZN_ac_3 - indicator_ZN_pp_6
   - indicator_ZN_nn_6 - indicator_ZN_ac_6 - indicator_ZN_pp_9
   - indicator_ZN_nn_9 - indicator_ZN_ac_9 - indicator_ZN_pp_12
   - indicator_ZN_nn_12 - indicator_ZN_ac_12 - indicator_ZN_pp_15
   - indicator_ZN_nn_15 - indicator_ZN_ac_15 + y_ZN_edge_m1_4_m1_8_r_4
   <= -1
 active_c_ge_min_indicator_min_one_ZN_m1_4_m1_8_4: min_indicator_ZN
   + 5 y_ZN_edge_m1_4_m1_8_r_4 <= 7
 active_c_ge_max_bbox_min_bbox_ZN_m1_4_m1_8_4: - max_bbox_ZN
   + 5 y_ZN_edge_m1_4_m1_8_r_4 <= 3
 edge_flow_ub_ZN_m1_4_m1_8_4: - 2 y_ZN_edge_m1_4_m1_8_r_4
   + f_ZN_edge_m1_4_m1_8_r_4 <= 0
 edge_flow_lb_ZN_m1_4_m1_8_4: 2 y_ZN_edge_m1_4_m1_8_r_4
   + f_ZN_edge_m1_4_m1_8_r_4 >= 0
 global_zero_constraint_ZN_m1_8_pv_8_ve: - indicator_ZN_pp_3
   - indicator_ZN_nn_3 - indicator_ZN_ac_3 - indicator_ZN_pp_6
   - indicator_ZN_nn_6 - indicator_ZN_ac_6 - indicator_ZN_pp_9
   - indicator_ZN_nn_9 - indicator_ZN_ac_9 - indicator_ZN_pp_12
   - indicator_ZN_nn_12 - indicator_ZN_ac_12 - indicator_ZN_pp_15
   - indicator_ZN_nn_15 - indicator_ZN_ac_15
   + y_ZN_edge_via_enable_m1_8_pv_8 <= -1
 active_c_ge_min_indicator_min_one_ZN_m1_8_pv_8_ve: min_indicator_ZN
   + 5 y_ZN_edge_via_enable_m1_8_pv_8 <= 7
 active_c_ge_max_bbox_min_bbox_ZN_m1_8_pv_8_ve: - max_bbox_ZN
   + 5 y_ZN_edge_via_enable_m1_8_pv_8 <= 3
 edge_flow_ub_ZN_m1_8_pv_8_ve: - 2 y_ZN_edge_via_enable_m1_8_pv_8
   + f_ZN_edge_via_enable_m1_8_pv_8 <= 0
 edge_flow_lb_ZN_m1_8_pv_8_ve: 2 y_ZN_edge_via_enable_m1_8_pv_8
   + f_ZN_edge_via_enable_m1_8_pv_8 >= 0
 global_zero_constraint_ZN_m1_8_nv_8_ve: - indicator_ZN_pp_3
   - indicator_ZN_nn_3 - indicator_ZN_ac_3 - indicator_ZN_pp_6
   - indicator_ZN_nn_6 - indicator_ZN_ac_6 - indicator_ZN_pp_9
   - indicator_ZN_nn_9 - indicator_ZN_ac_9 - indicator_ZN_pp_12
   - indicator_ZN_nn_12 - indicator_ZN_ac_12 - indicator_ZN_pp_15
   - indicator_ZN_nn_15 - indicator_ZN_ac_15
   + y_ZN_edge_via_enable_m1_8_nv_8 <= -1
 active_c_ge_min_indicator_min_one_ZN_m1_8_nv_8_ve: min_indicator_ZN
   + 5 y_ZN_edge_via_enable_m1_8_nv_8 <= 7
 active_c_ge_max_bbox_min_bbox_ZN_m1_8_nv_8_ve: - max_bbox_ZN
   + 5 y_ZN_edge_via_enable_m1_8_nv_8 <= 3
 edge_flow_ub_ZN_m1_8_nv_8_ve: - 2 y_ZN_edge_via_enable_m1_8_nv_8
   + f_ZN_edge_via_enable_m1_8_nv_8 <= 0
 edge_flow_lb_ZN_m1_8_nv_8_ve: 2 y_ZN_edge_via_enable_m1_8_nv_8
   + f_ZN_edge_via_enable_m1_8_nv_8 >= 0
 global_zero_constraint_ZN_m1_8_m1_12_7: - indicator_ZN_pp_3
   - indicator_ZN_nn_3 - indicator_ZN_ac_3 - indicator_ZN_pp_6
   - indicator_ZN_nn_6 - indicator_ZN_ac_6 - indicator_ZN_pp_9
   - indicator_ZN_nn_9 - indicator_ZN_ac_9 - indicator_ZN_pp_12
   - indicator_ZN_nn_12 - indicator_ZN_ac_12 - indicator_ZN_pp_15
   - indicator_ZN_nn_15 - indicator_ZN_ac_15 + y_ZN_edge_m1_8_m1_12_r_7
   <= -1
 active_c_ge_min_indicator_min_one_ZN_m1_8_m1_12_7: min_indicator_ZN
   + 5 y_ZN_edge_m1_8_m1_12_r_7 <= 8
 active_c_ge_max_bbox_min_bbox_ZN_m1_8_m1_12_7: - max_bbox_ZN
   + 5 y_ZN_edge_m1_8_m1_12_r_7 <= 2
 edge_flow_ub_ZN_m1_8_m1_12_7: - 2 y_ZN_edge_m1_8_m1_12_r_7
   + f_ZN_edge_m1_8_m1_12_r_7 <= 0
 edge_flow_lb_ZN_m1_8_m1_12_7: 2 y_ZN_edge_m1_8_m1_12_r_7
   + f_ZN_edge_m1_8_m1_12_r_7 >= 0
 global_zero_constraint_ZN_m1_8_m1_12_6: - indicator_ZN_pp_3
   - indicator_ZN_nn_3 - indicator_ZN_ac_3 - indicator_ZN_pp_6
   - indicator_ZN_nn_6 - indicator_ZN_ac_6 - indicator_ZN_pp_9
   - indicator_ZN_nn_9 - indicator_ZN_ac_9 - indicator_ZN_pp_12
   - indicator_ZN_nn_12 - indicator_ZN_ac_12 - indicator_ZN_pp_15
   - indicator_ZN_nn_15 - indicator_ZN_ac_15 + y_ZN_edge_m1_8_m1_12_r_6
   <= -1
 active_c_ge_min_indicator_min_one_ZN_m1_8_m1_12_6: min_indicator_ZN
   + 5 y_ZN_edge_m1_8_m1_12_r_6 <= 8
 active_c_ge_max_bbox_min_bbox_ZN_m1_8_m1_12_6: - max_bbox_ZN
   + 5 y_ZN_edge_m1_8_m1_12_r_6 <= 2
 edge_flow_ub_ZN_m1_8_m1_12_6: - 2 y_ZN_edge_m1_8_m1_12_r_6
   + f_ZN_edge_m1_8_m1_12_r_6 <= 0
 edge_flow_lb_ZN_m1_8_m1_12_6: 2 y_ZN_edge_m1_8_m1_12_r_6
   + f_ZN_edge_m1_8_m1_12_r_6 >= 0
 global_zero_constraint_ZN_m1_8_m1_12_5: - indicator_ZN_pp_3
   - indicator_ZN_nn_3 - indicator_ZN_ac_3 - indicator_ZN_pp_6
   - indicator_ZN_nn_6 - indicator_ZN_ac_6 - indicator_ZN_pp_9
   - indicator_ZN_nn_9 - indicator_ZN_ac_9 - indicator_ZN_pp_12
   - indicator_ZN_nn_12 - indicator_ZN_ac_12 - indicator_ZN_pp_15
   - indicator_ZN_nn_15 - indicator_ZN_ac_15 + y_ZN_edge_m1_8_m1_12_r_5
   <= -1
 active_c_ge_min_indicator_min_one_ZN_m1_8_m1_12_5: min_indicator_ZN
   + 5 y_ZN_edge_m1_8_m1_12_r_5 <= 8
 active_c_ge_max_bbox_min_bbox_ZN_m1_8_m1_12_5: - max_bbox_ZN
   + 5 y_ZN_edge_m1_8_m1_12_r_5 <= 2
 edge_flow_ub_ZN_m1_8_m1_12_5: - 2 y_ZN_edge_m1_8_m1_12_r_5
   + f_ZN_edge_m1_8_m1_12_r_5 <= 0
 edge_flow_lb_ZN_m1_8_m1_12_5: 2 y_ZN_edge_m1_8_m1_12_r_5
   + f_ZN_edge_m1_8_m1_12_r_5 >= 0
 global_zero_constraint_ZN_m1_8_m1_12_4: - indicator_ZN_pp_3
   - indicator_ZN_nn_3 - indicator_ZN_ac_3 - indicator_ZN_pp_6
   - indicator_ZN_nn_6 - indicator_ZN_ac_6 - indicator_ZN_pp_9
   - indicator_ZN_nn_9 - indicator_ZN_ac_9 - indicator_ZN_pp_12
   - indicator_ZN_nn_12 - indicator_ZN_ac_12 - indicator_ZN_pp_15
   - indicator_ZN_nn_15 - indicator_ZN_ac_15 + y_ZN_edge_m1_8_m1_12_r_4
   <= -1
 active_c_ge_min_indicator_min_one_ZN_m1_8_m1_12_4: min_indicator_ZN
   + 5 y_ZN_edge_m1_8_m1_12_r_4 <= 8
 active_c_ge_max_bbox_min_bbox_ZN_m1_8_m1_12_4: - max_bbox_ZN
   + 5 y_ZN_edge_m1_8_m1_12_r_4 <= 2
 edge_flow_ub_ZN_m1_8_m1_12_4: - 2 y_ZN_edge_m1_8_m1_12_r_4
   + f_ZN_edge_m1_8_m1_12_r_4 <= 0
 edge_flow_lb_ZN_m1_8_m1_12_4: 2 y_ZN_edge_m1_8_m1_12_r_4
   + f_ZN_edge_m1_8_m1_12_r_4 >= 0
 global_zero_constraint_ZN_m1_12_pv_12_ve: - indicator_ZN_pp_3
   - indicator_ZN_nn_3 - indicator_ZN_ac_3 - indicator_ZN_pp_6
   - indicator_ZN_nn_6 - indicator_ZN_ac_6 - indicator_ZN_pp_9
   - indicator_ZN_nn_9 - indicator_ZN_ac_9 - indicator_ZN_pp_12
   - indicator_ZN_nn_12 - indicator_ZN_ac_12 - indicator_ZN_pp_15
   - indicator_ZN_nn_15 - indicator_ZN_ac_15
   + y_ZN_edge_via_enable_m1_12_pv_12 <= -1
 active_c_ge_min_indicator_min_one_ZN_m1_12_pv_12_ve: min_indicator_ZN
   + 5 y_ZN_edge_via_enable_m1_12_pv_12 <= 8
 active_c_ge_max_bbox_min_bbox_ZN_m1_12_pv_12_ve: - max_bbox_ZN
   + 5 y_ZN_edge_via_enable_m1_12_pv_12 <= 2
 edge_flow_ub_ZN_m1_12_pv_12_ve: - 2 y_ZN_edge_via_enable_m1_12_pv_12
   + f_ZN_edge_via_enable_m1_12_pv_12 <= 0
 edge_flow_lb_ZN_m1_12_pv_12_ve: 2 y_ZN_edge_via_enable_m1_12_pv_12
   + f_ZN_edge_via_enable_m1_12_pv_12 >= 0
 global_zero_constraint_ZN_m1_12_nv_12_ve: - indicator_ZN_pp_3
   - indicator_ZN_nn_3 - indicator_ZN_ac_3 - indicator_ZN_pp_6
   - indicator_ZN_nn_6 - indicator_ZN_ac_6 - indicator_ZN_pp_9
   - indicator_ZN_nn_9 - indicator_ZN_ac_9 - indicator_ZN_pp_12
   - indicator_ZN_nn_12 - indicator_ZN_ac_12 - indicator_ZN_pp_15
   - indicator_ZN_nn_15 - indicator_ZN_ac_15
   + y_ZN_edge_via_enable_m1_12_nv_12 <= -1
 active_c_ge_min_indicator_min_one_ZN_m1_12_nv_12_ve: min_indicator_ZN
   + 5 y_ZN_edge_via_enable_m1_12_nv_12 <= 8
 active_c_ge_max_bbox_min_bbox_ZN_m1_12_nv_12_ve: - max_bbox_ZN
   + 5 y_ZN_edge_via_enable_m1_12_nv_12 <= 2
 edge_flow_ub_ZN_m1_12_nv_12_ve: - 2 y_ZN_edge_via_enable_m1_12_nv_12
   + f_ZN_edge_via_enable_m1_12_nv_12 <= 0
 edge_flow_lb_ZN_m1_12_nv_12_ve: 2 y_ZN_edge_via_enable_m1_12_nv_12
   + f_ZN_edge_via_enable_m1_12_nv_12 >= 0
 via_enable_ZN_pv_15_pv_4: - v_ZN_v[0] + y_ZN_edge_via_enable_m1_4_pv_4
   <= 0
 via_enable_ZN_pv_15_nv_4: - v_ZN_v[0] + y_ZN_edge_via_enable_m1_4_nv_4
   <= 0
 via_enable_ZN_pv_15_pv_8: - v_ZN_v[1] + y_ZN_edge_via_enable_m1_8_pv_8
   <= 0
 via_enable_ZN_pv_15_nv_8: - v_ZN_v[1] + y_ZN_edge_via_enable_m1_8_nv_8
   <= 0
 via_enable_ZN_pv_15_pv_12: - v_ZN_v[2] + y_ZN_edge_via_enable_m1_12_pv_12
   <= 0
 via_enable_ZN_pv_15_nv_12: - v_ZN_v[2] + y_ZN_edge_via_enable_m1_12_nv_12
   <= 0
 t_activation_ZN_pv_3_pv_4_0_3: t_ZN_c_r[0,3] - y_ZN_edge_pv_3_pv_4_3 >= 0
 t_activation_ZN_pv_3_pv_4_1_3: t_ZN_c_r[1,3] - y_ZN_edge_pv_3_pv_4_3 >= 0
 logical_constraint_ZN_pv_3_pv_4_j_index_3: - t_eol_c_r[2,3]
   - t_ZN_c_r[2,3] + y_ZN_edge_pv_3_pv_4_3 <= 0
 t_activation_ZN_pv_3_pv_4_0_2: t_ZN_c_r[0,2] - y_ZN_edge_pv_3_pv_4_2 >= 0
 t_activation_ZN_pv_3_pv_4_1_2: t_ZN_c_r[1,2] - y_ZN_edge_pv_3_pv_4_2 >= 0
 logical_constraint_ZN_pv_3_pv_4_j_index_2: - t_eol_c_r[2,2]
   - t_ZN_c_r[2,2] + y_ZN_edge_pv_3_pv_4_2 <= 0
 t_activation_ZN_nv_3_nv_4_0_1: t_ZN_c_r[0,1] - y_ZN_edge_nv_3_nv_4_1 >= 0
 t_activation_ZN_nv_3_nv_4_1_1: t_ZN_c_r[1,1] - y_ZN_edge_nv_3_nv_4_1 >= 0
 logical_constraint_ZN_nv_3_nv_4_j_index_1: - t_eol_c_r[2,1]
   - t_ZN_c_r[2,1] + y_ZN_edge_nv_3_nv_4_1 <= 0
 t_activation_ZN_nv_3_nv_4_0_0: t_ZN_c_r[0,0] - y_ZN_edge_nv_3_nv_4_0 >= 0
 t_activation_ZN_nv_3_nv_4_1_0: t_ZN_c_r[1,0] - y_ZN_edge_nv_3_nv_4_0 >= 0
 logical_constraint_ZN_nv_3_nv_4_j_index_0: - t_eol_c_r[2,0]
   - t_ZN_c_r[2,0] + y_ZN_edge_nv_3_nv_4_0 <= 0
 t_activation_ZN_pv_4_pv_6_0_3: t_ZN_c_r[0,3] - y_ZN_edge_pv_4_pv_6_3 >= 0
 t_activation_ZN_pv_4_pv_6_1_3: t_ZN_c_r[1,3] - y_ZN_edge_pv_4_pv_6_3 >= 0
 logical_constraint_ZN_pv_4_pv_6_j_index_3: - t_eol_c_r[2,3]
   - t_ZN_c_r[2,3] + y_ZN_edge_pv_4_pv_6_3 <= 0
 t_activation_ZN_pv_4_pv_6_0_2: t_ZN_c_r[0,2] - y_ZN_edge_pv_4_pv_6_2 >= 0
 t_activation_ZN_pv_4_pv_6_1_2: t_ZN_c_r[1,2] - y_ZN_edge_pv_4_pv_6_2 >= 0
 logical_constraint_ZN_pv_4_pv_6_j_index_2: - t_eol_c_r[2,2]
   - t_ZN_c_r[2,2] + y_ZN_edge_pv_4_pv_6_2 <= 0
 t_activation_ZN_nv_4_nv_6_0_1: t_ZN_c_r[0,1] - y_ZN_edge_nv_4_nv_6_1 >= 0
 t_activation_ZN_nv_4_nv_6_1_1: t_ZN_c_r[1,1] - y_ZN_edge_nv_4_nv_6_1 >= 0
 logical_constraint_ZN_nv_4_nv_6_j_index_1: - t_eol_c_r[2,1]
   - t_ZN_c_r[2,1] + y_ZN_edge_nv_4_nv_6_1 <= 0
 t_activation_ZN_nv_4_nv_6_0_0: t_ZN_c_r[0,0] - y_ZN_edge_nv_4_nv_6_0 >= 0
 t_activation_ZN_nv_4_nv_6_1_0: t_ZN_c_r[1,0] - y_ZN_edge_nv_4_nv_6_0 >= 0
 logical_constraint_ZN_nv_4_nv_6_j_index_0: - t_eol_c_r[2,0]
   - t_ZN_c_r[2,0] + y_ZN_edge_nv_4_nv_6_0 <= 0
 t_activation_ZN_pv_6_pv_8_1_3: t_ZN_c_r[1,3] - y_ZN_edge_pv_6_pv_8_3 >= 0
 t_activation_ZN_pv_6_pv_8_2_3: t_ZN_c_r[2,3] - y_ZN_edge_pv_6_pv_8_3 >= 0
 logical_constraint_ZN_pv_6_pv_8_i_index_minus_1_3: - t_eol_c_r[0,3]
   - t_ZN_c_r[0,3] + y_ZN_edge_pv_6_pv_8_3 <= 0
 logical_constraint_ZN_pv_6_pv_8_j_index_3: - t_eol_c_r[3,3]
   - t_ZN_c_r[3,3] + y_ZN_edge_pv_6_pv_8_3 <= 0
 t_activation_ZN_pv_6_pv_8_1_2: t_ZN_c_r[1,2] - y_ZN_edge_pv_6_pv_8_2 >= 0
 t_activation_ZN_pv_6_pv_8_2_2: t_ZN_c_r[2,2] - y_ZN_edge_pv_6_pv_8_2 >= 0
 logical_constraint_ZN_pv_6_pv_8_i_index_minus_1_2: - t_eol_c_r[0,2]
   - t_ZN_c_r[0,2] + y_ZN_edge_pv_6_pv_8_2 <= 0
 logical_constraint_ZN_pv_6_pv_8_j_index_2: - t_eol_c_r[3,2]
   - t_ZN_c_r[3,2] + y_ZN_edge_pv_6_pv_8_2 <= 0
 t_activation_ZN_nv_6_nv_8_1_1: t_ZN_c_r[1,1] - y_ZN_edge_nv_6_nv_8_1 >= 0
 t_activation_ZN_nv_6_nv_8_2_1: t_ZN_c_r[2,1] - y_ZN_edge_nv_6_nv_8_1 >= 0
 logical_constraint_ZN_nv_6_nv_8_i_index_minus_1_1: - t_eol_c_r[0,1]
   - t_ZN_c_r[0,1] + y_ZN_edge_nv_6_nv_8_1 <= 0
 logical_constraint_ZN_nv_6_nv_8_j_index_1: - t_eol_c_r[3,1]
   - t_ZN_c_r[3,1] + y_ZN_edge_nv_6_nv_8_1 <= 0
 t_activation_ZN_nv_6_nv_8_1_0: t_ZN_c_r[1,0] - y_ZN_edge_nv_6_nv_8_0 >= 0
 t_activation_ZN_nv_6_nv_8_2_0: t_ZN_c_r[2,0] - y_ZN_edge_nv_6_nv_8_0 >= 0
 logical_constraint_ZN_nv_6_nv_8_i_index_minus_1_0: - t_eol_c_r[0,0]
   - t_ZN_c_r[0,0] + y_ZN_edge_nv_6_nv_8_0 <= 0
 logical_constraint_ZN_nv_6_nv_8_j_index_0: - t_eol_c_r[3,0]
   - t_ZN_c_r[3,0] + y_ZN_edge_nv_6_nv_8_0 <= 0
 t_activation_ZN_pv_8_pv_9_1_3: t_ZN_c_r[1,3] - y_ZN_edge_pv_8_pv_9_3 >= 0
 t_activation_ZN_pv_8_pv_9_2_3: t_ZN_c_r[2,3] - y_ZN_edge_pv_8_pv_9_3 >= 0
 logical_constraint_ZN_pv_8_pv_9_i_index_minus_1_3: - t_eol_c_r[0,3]
   - t_ZN_c_r[0,3] + y_ZN_edge_pv_8_pv_9_3 <= 0
 logical_constraint_ZN_pv_8_pv_9_j_index_3: - t_eol_c_r[3,3]
   - t_ZN_c_r[3,3] + y_ZN_edge_pv_8_pv_9_3 <= 0
 t_activation_ZN_pv_8_pv_9_1_2: t_ZN_c_r[1,2] - y_ZN_edge_pv_8_pv_9_2 >= 0
 t_activation_ZN_pv_8_pv_9_2_2: t_ZN_c_r[2,2] - y_ZN_edge_pv_8_pv_9_2 >= 0
 logical_constraint_ZN_pv_8_pv_9_i_index_minus_1_2: - t_eol_c_r[0,2]
   - t_ZN_c_r[0,2] + y_ZN_edge_pv_8_pv_9_2 <= 0
 logical_constraint_ZN_pv_8_pv_9_j_index_2: - t_eol_c_r[3,2]
   - t_ZN_c_r[3,2] + y_ZN_edge_pv_8_pv_9_2 <= 0
 t_activation_ZN_nv_8_nv_9_1_1: t_ZN_c_r[1,1] - y_ZN_edge_nv_8_nv_9_1 >= 0
 t_activation_ZN_nv_8_nv_9_2_1: t_ZN_c_r[2,1] - y_ZN_edge_nv_8_nv_9_1 >= 0
 logical_constraint_ZN_nv_8_nv_9_i_index_minus_1_1: - t_eol_c_r[0,1]
   - t_ZN_c_r[0,1] + y_ZN_edge_nv_8_nv_9_1 <= 0
 logical_constraint_ZN_nv_8_nv_9_j_index_1: - t_eol_c_r[3,1]
   - t_ZN_c_r[3,1] + y_ZN_edge_nv_8_nv_9_1 <= 0
 t_activation_ZN_nv_8_nv_9_1_0: t_ZN_c_r[1,0] - y_ZN_edge_nv_8_nv_9_0 >= 0
 t_activation_ZN_nv_8_nv_9_2_0: t_ZN_c_r[2,0] - y_ZN_edge_nv_8_nv_9_0 >= 0
 logical_constraint_ZN_nv_8_nv_9_i_index_minus_1_0: - t_eol_c_r[0,0]
   - t_ZN_c_r[0,0] + y_ZN_edge_nv_8_nv_9_0 <= 0
 logical_constraint_ZN_nv_8_nv_9_j_index_0: - t_eol_c_r[3,0]
   - t_ZN_c_r[3,0] + y_ZN_edge_nv_8_nv_9_0 <= 0
 t_activation_ZN_pv_9_pv_12_2_3: t_ZN_c_r[2,3] - y_ZN_edge_pv_9_pv_12_3
   >= 0
 t_activation_ZN_pv_9_pv_12_3_3: t_ZN_c_r[3,3] - y_ZN_edge_pv_9_pv_12_3
   >= 0
 logical_constraint_ZN_pv_9_pv_12_i_index_minus_1_3: - t_eol_c_r[1,3]
   - t_ZN_c_r[1,3] + y_ZN_edge_pv_9_pv_12_3 <= 0
 logical_constraint_ZN_pv_9_pv_12_j_index_3: - t_eol_c_r[4,3]
   - t_ZN_c_r[4,3] + y_ZN_edge_pv_9_pv_12_3 <= 0
 t_activation_ZN_pv_9_pv_12_2_2: t_ZN_c_r[2,2] - y_ZN_edge_pv_9_pv_12_2
   >= 0
 t_activation_ZN_pv_9_pv_12_3_2: t_ZN_c_r[3,2] - y_ZN_edge_pv_9_pv_12_2
   >= 0
 logical_constraint_ZN_pv_9_pv_12_i_index_minus_1_2: - t_eol_c_r[1,2]
   - t_ZN_c_r[1,2] + y_ZN_edge_pv_9_pv_12_2 <= 0
 logical_constraint_ZN_pv_9_pv_12_j_index_2: - t_eol_c_r[4,2]
   - t_ZN_c_r[4,2] + y_ZN_edge_pv_9_pv_12_2 <= 0
 t_activation_ZN_nv_9_nv_12_2_1: t_ZN_c_r[2,1] - y_ZN_edge_nv_9_nv_12_1
   >= 0
 t_activation_ZN_nv_9_nv_12_3_1: t_ZN_c_r[3,1] - y_ZN_edge_nv_9_nv_12_1
   >= 0
 logical_constraint_ZN_nv_9_nv_12_i_index_minus_1_1: - t_eol_c_r[1,1]
   - t_ZN_c_r[1,1] + y_ZN_edge_nv_9_nv_12_1 <= 0
 logical_constraint_ZN_nv_9_nv_12_j_index_1: - t_eol_c_r[4,1]
   - t_ZN_c_r[4,1] + y_ZN_edge_nv_9_nv_12_1 <= 0
 t_activation_ZN_nv_9_nv_12_2_0: t_ZN_c_r[2,0] - y_ZN_edge_nv_9_nv_12_0
   >= 0
 t_activation_ZN_nv_9_nv_12_3_0: t_ZN_c_r[3,0] - y_ZN_edge_nv_9_nv_12_0
   >= 0
 logical_constraint_ZN_nv_9_nv_12_i_index_minus_1_0: - t_eol_c_r[1,0]
   - t_ZN_c_r[1,0] + y_ZN_edge_nv_9_nv_12_0 <= 0
 logical_constraint_ZN_nv_9_nv_12_j_index_0: - t_eol_c_r[4,0]
   - t_ZN_c_r[4,0] + y_ZN_edge_nv_9_nv_12_0 <= 0
 t_activation_ZN_pv_12_pv_15_3_3: t_ZN_c_r[3,3] - y_ZN_edge_pv_12_pv_15_3
   >= 0
 t_activation_ZN_pv_12_pv_15_4_3: t_ZN_c_r[4,3] - y_ZN_edge_pv_12_pv_15_3
   >= 0
 logical_constraint_ZN_pv_12_pv_15_i_index_minus_1_3: - t_eol_c_r[2,3]
   - t_ZN_c_r[2,3] + y_ZN_edge_pv_12_pv_15_3 <= 0
 t_activation_ZN_pv_12_pv_15_3_2: t_ZN_c_r[3,2] - y_ZN_edge_pv_12_pv_15_2
   >= 0
 t_activation_ZN_pv_12_pv_15_4_2: t_ZN_c_r[4,2] - y_ZN_edge_pv_12_pv_15_2
   >= 0
 logical_constraint_ZN_pv_12_pv_15_i_index_minus_1_2: - t_eol_c_r[2,2]
   - t_ZN_c_r[2,2] + y_ZN_edge_pv_12_pv_15_2 <= 0
 t_activation_ZN_nv_12_nv_15_3_1: t_ZN_c_r[3,1] - y_ZN_edge_nv_12_nv_15_1
   >= 0
 t_activation_ZN_nv_12_nv_15_4_1: t_ZN_c_r[4,1] - y_ZN_edge_nv_12_nv_15_1
   >= 0
 logical_constraint_ZN_nv_12_nv_15_i_index_minus_1_1: - t_eol_c_r[2,1]
   - t_ZN_c_r[2,1] + y_ZN_edge_nv_12_nv_15_1 <= 0
 t_activation_ZN_nv_12_nv_15_3_0: t_ZN_c_r[3,0] - y_ZN_edge_nv_12_nv_15_0
   >= 0
 t_activation_ZN_nv_12_nv_15_4_0: t_ZN_c_r[4,0] - y_ZN_edge_nv_12_nv_15_0
   >= 0
 logical_constraint_ZN_nv_12_nv_15_i_index_minus_1_0: - t_eol_c_r[2,0]
   - t_ZN_c_r[2,0] + y_ZN_edge_nv_12_nv_15_0 <= 0
 t_activation_ZN_m1_4_m1_8_0_7: ut_ZN_c_r[0,7] - y_ZN_edge_m1_4_m1_8_r_7
   >= 0
 t_activation_ZN_m1_4_m1_8_1_7: ut_ZN_c_r[1,7] - y_ZN_edge_m1_4_m1_8_r_7
   >= 0
 t_activation_ZN_m1_4_m1_8_2_7: ut_ZN_c_r[2,7] - y_ZN_edge_m1_4_m1_8_r_7
   >= 0
 logical_constraint_ZN_m1_4_m1_8_j_index_7: - ut_eol_c_r[3,7]
   - ut_ZN_c_r[3,7] + y_ZN_edge_m1_4_m1_8_r_7 <= 0
 t_activation_ZN_m1_4_m1_8_0_6: ut_ZN_c_r[0,6] - y_ZN_edge_m1_4_m1_8_r_6
   >= 0
 t_activation_ZN_m1_4_m1_8_1_6: ut_ZN_c_r[1,6] - y_ZN_edge_m1_4_m1_8_r_6
   >= 0
 t_activation_ZN_m1_4_m1_8_2_6: ut_ZN_c_r[2,6] - y_ZN_edge_m1_4_m1_8_r_6
   >= 0
 logical_constraint_ZN_m1_4_m1_8_j_index_6: - ut_eol_c_r[3,6]
   - ut_ZN_c_r[3,6] + y_ZN_edge_m1_4_m1_8_r_6 <= 0
 t_activation_ZN_m1_4_m1_8_0_5: ut_ZN_c_r[0,5] - y_ZN_edge_m1_4_m1_8_r_5
   >= 0
 t_activation_ZN_m1_4_m1_8_1_5: ut_ZN_c_r[1,5] - y_ZN_edge_m1_4_m1_8_r_5
   >= 0
 t_activation_ZN_m1_4_m1_8_2_5: ut_ZN_c_r[2,5] - y_ZN_edge_m1_4_m1_8_r_5
   >= 0
 logical_constraint_ZN_m1_4_m1_8_j_index_5: - ut_eol_c_r[3,5]
   - ut_ZN_c_r[3,5] + y_ZN_edge_m1_4_m1_8_r_5 <= 0
 t_activation_ZN_m1_4_m1_8_0_4: ut_ZN_c_r[0,4] - y_ZN_edge_m1_4_m1_8_r_4
   >= 0
 t_activation_ZN_m1_4_m1_8_1_4: ut_ZN_c_r[1,4] - y_ZN_edge_m1_4_m1_8_r_4
   >= 0
 t_activation_ZN_m1_4_m1_8_2_4: ut_ZN_c_r[2,4] - y_ZN_edge_m1_4_m1_8_r_4
   >= 0
 logical_constraint_ZN_m1_4_m1_8_j_index_4: - ut_eol_c_r[3,4]
   - ut_ZN_c_r[3,4] + y_ZN_edge_m1_4_m1_8_r_4 <= 0
 t_activation_ZN_m1_8_m1_12_1_7: ut_ZN_c_r[1,7] - y_ZN_edge_m1_8_m1_12_r_7
   >= 0
 t_activation_ZN_m1_8_m1_12_2_7: ut_ZN_c_r[2,7] - y_ZN_edge_m1_8_m1_12_r_7
   >= 0
 t_activation_ZN_m1_8_m1_12_3_7: ut_ZN_c_r[3,7] - y_ZN_edge_m1_8_m1_12_r_7
   >= 0
 logical_constraint_ZN_m1_8_m1_12_i_index_minus_2_7: - ut_eol_c_r[0,7]
   - ut_ZN_c_r[0,7] + y_ZN_edge_m1_8_m1_12_r_7 <= 0
 logical_constraint_ZN_m1_8_m1_12_j_index_7: - ut_eol_c_r[4,7]
   - ut_ZN_c_r[4,7] + y_ZN_edge_m1_8_m1_12_r_7 <= 0
 t_activation_ZN_m1_8_m1_12_1_6: ut_ZN_c_r[1,6] - y_ZN_edge_m1_8_m1_12_r_6
   >= 0
 t_activation_ZN_m1_8_m1_12_2_6: ut_ZN_c_r[2,6] - y_ZN_edge_m1_8_m1_12_r_6
   >= 0
 t_activation_ZN_m1_8_m1_12_3_6: ut_ZN_c_r[3,6] - y_ZN_edge_m1_8_m1_12_r_6
   >= 0
 logical_constraint_ZN_m1_8_m1_12_i_index_minus_2_6: - ut_eol_c_r[0,6]
   - ut_ZN_c_r[0,6] + y_ZN_edge_m1_8_m1_12_r_6 <= 0
 logical_constraint_ZN_m1_8_m1_12_j_index_6: - ut_eol_c_r[4,6]
   - ut_ZN_c_r[4,6] + y_ZN_edge_m1_8_m1_12_r_6 <= 0
 t_activation_ZN_m1_8_m1_12_1_5: ut_ZN_c_r[1,5] - y_ZN_edge_m1_8_m1_12_r_5
   >= 0
 t_activation_ZN_m1_8_m1_12_2_5: ut_ZN_c_r[2,5] - y_ZN_edge_m1_8_m1_12_r_5
   >= 0
 t_activation_ZN_m1_8_m1_12_3_5: ut_ZN_c_r[3,5] - y_ZN_edge_m1_8_m1_12_r_5
   >= 0
 logical_constraint_ZN_m1_8_m1_12_i_index_minus_2_5: - ut_eol_c_r[0,5]
   - ut_ZN_c_r[0,5] + y_ZN_edge_m1_8_m1_12_r_5 <= 0
 logical_constraint_ZN_m1_8_m1_12_j_index_5: - ut_eol_c_r[4,5]
   - ut_ZN_c_r[4,5] + y_ZN_edge_m1_8_m1_12_r_5 <= 0
 t_activation_ZN_m1_8_m1_12_1_4: ut_ZN_c_r[1,4] - y_ZN_edge_m1_8_m1_12_r_4
   >= 0
 t_activation_ZN_m1_8_m1_12_2_4: ut_ZN_c_r[2,4] - y_ZN_edge_m1_8_m1_12_r_4
   >= 0
 t_activation_ZN_m1_8_m1_12_3_4: ut_ZN_c_r[3,4] - y_ZN_edge_m1_8_m1_12_r_4
   >= 0
 logical_constraint_ZN_m1_8_m1_12_i_index_minus_2_4: - ut_eol_c_r[0,4]
   - ut_ZN_c_r[0,4] + y_ZN_edge_m1_8_m1_12_r_4 <= 0
 logical_constraint_ZN_m1_8_m1_12_j_index_4: - ut_eol_c_r[4,4]
   - ut_ZN_c_r[4,4] + y_ZN_edge_m1_8_m1_12_r_4 <= 0
 flow_conservation_ZN_ac_3: f_ZN_edge_connector_pv_3_ac_3_co
   + f_ZN_edge_connector_nv_3_ac_3_co - cap_ZN_ac_3 = 0
 flow_conservation_ZN_nn_3: f_ZN_edge_connector_nv_3_nn_3_co - cap_ZN_nn_3
   = 0
 middle_node_ZN_nv_3: cap_ZN_nv_3 = 0
 flow_conservation_ZN_nv_3: - f_ZN_edge_connector_nv_3_nn_3_co
   - f_ZN_edge_connector_nv_3_ac_3_co - f_ZN_edge_nv_3_nv_4_1
   - f_ZN_edge_nv_3_nv_4_0 - cap_ZN_nv_3 = 0
 flow_conservation_ZN_pp_3: f_ZN_edge_connector_pv_3_pp_3_co - cap_ZN_pp_3
   = 0
 middle_node_ZN_pv_3: cap_ZN_pv_3 = 0
 flow_conservation_ZN_pv_3: - f_ZN_edge_connector_pv_3_pp_3_co
   - f_ZN_edge_connector_pv_3_ac_3_co - f_ZN_edge_pv_3_pv_4_3
   - f_ZN_edge_pv_3_pv_4_2 - cap_ZN_pv_3 = 0
 middle_node_ZN_m1_4: cap_ZN_m1_4 = 0
 flow_conservation_ZN_m1_4: - f_ZN_edge_via_enable_m1_4_pv_4
   - f_ZN_edge_via_enable_m1_4_nv_4 - f_ZN_edge_m1_4_m1_8_r_7
   - f_ZN_edge_m1_4_m1_8_r_6 - f_ZN_edge_m1_4_m1_8_r_5
   - f_ZN_edge_m1_4_m1_8_r_4 - cap_ZN_m1_4 = 0
 middle_node_ZN_nv_4: cap_ZN_nv_4 = 0
 flow_conservation_ZN_nv_4: f_ZN_edge_nv_3_nv_4_1 + f_ZN_edge_nv_3_nv_4_0
   - f_ZN_edge_nv_4_nv_6_1 - f_ZN_edge_nv_4_nv_6_0
   + f_ZN_edge_via_enable_m1_4_nv_4 - cap_ZN_nv_4 = 0
 middle_node_ZN_pv_4: cap_ZN_pv_4 = 0
 flow_conservation_ZN_pv_4: f_ZN_edge_pv_3_pv_4_3 + f_ZN_edge_pv_3_pv_4_2
   - f_ZN_edge_pv_4_pv_6_3 - f_ZN_edge_pv_4_pv_6_2
   + f_ZN_edge_via_enable_m1_4_pv_4 - cap_ZN_pv_4 = 0
 flow_conservation_ZN_ac_6: f_ZN_edge_connector_pv_6_ac_6_co
   + f_ZN_edge_connector_nv_6_ac_6_co - cap_ZN_ac_6 = 0
 flow_conservation_ZN_nn_6: f_ZN_edge_connector_nv_6_nn_6_co - cap_ZN_nn_6
   = 0
 middle_node_ZN_nv_6: cap_ZN_nv_6 = 0
 flow_conservation_ZN_nv_6: - f_ZN_edge_connector_nv_6_nn_6_co
   - f_ZN_edge_connector_nv_6_ac_6_co + f_ZN_edge_nv_4_nv_6_1
   + f_ZN_edge_nv_4_nv_6_0 - f_ZN_edge_nv_6_nv_8_1 - f_ZN_edge_nv_6_nv_8_0
   - cap_ZN_nv_6 = 0
 flow_conservation_ZN_pp_6: f_ZN_edge_connector_pv_6_pp_6_co - cap_ZN_pp_6
   = 0
 middle_node_ZN_pv_6: cap_ZN_pv_6 = 0
 flow_conservation_ZN_pv_6: - f_ZN_edge_connector_pv_6_pp_6_co
   - f_ZN_edge_connector_pv_6_ac_6_co + f_ZN_edge_pv_4_pv_6_3
   + f_ZN_edge_pv_4_pv_6_2 - f_ZN_edge_pv_6_pv_8_3 - f_ZN_edge_pv_6_pv_8_2
   - cap_ZN_pv_6 = 0
 middle_node_ZN_m1_8: cap_ZN_m1_8 = 0
 flow_conservation_ZN_m1_8: f_ZN_edge_m1_4_m1_8_r_7
   + f_ZN_edge_m1_4_m1_8_r_6 + f_ZN_edge_m1_4_m1_8_r_5
   + f_ZN_edge_m1_4_m1_8_r_4 - f_ZN_edge_via_enable_m1_8_pv_8
   - f_ZN_edge_via_enable_m1_8_nv_8 - f_ZN_edge_m1_8_m1_12_r_7
   - f_ZN_edge_m1_8_m1_12_r_6 - f_ZN_edge_m1_8_m1_12_r_5
   - f_ZN_edge_m1_8_m1_12_r_4 - cap_ZN_m1_8 = 0
 middle_node_ZN_nv_8: cap_ZN_nv_8 = 0
 flow_conservation_ZN_nv_8: f_ZN_edge_nv_6_nv_8_1 + f_ZN_edge_nv_6_nv_8_0
   - f_ZN_edge_nv_8_nv_9_1 - f_ZN_edge_nv_8_nv_9_0
   + f_ZN_edge_via_enable_m1_8_nv_8 - cap_ZN_nv_8 = 0
 middle_node_ZN_pv_8: cap_ZN_pv_8 = 0
 flow_conservation_ZN_pv_8: f_ZN_edge_pv_6_pv_8_3 + f_ZN_edge_pv_6_pv_8_2
   - f_ZN_edge_pv_8_pv_9_3 - f_ZN_edge_pv_8_pv_9_2
   + f_ZN_edge_via_enable_m1_8_pv_8 - cap_ZN_pv_8 = 0
 flow_conservation_ZN_ac_9: f_ZN_edge_connector_pv_9_ac_9_co
   + f_ZN_edge_connector_nv_9_ac_9_co - cap_ZN_ac_9 = 0
 flow_conservation_ZN_nn_9: f_ZN_edge_connector_nv_9_nn_9_co - cap_ZN_nn_9
   = 0
 middle_node_ZN_nv_9: cap_ZN_nv_9 = 0
 flow_conservation_ZN_nv_9: - f_ZN_edge_connector_nv_9_nn_9_co
   - f_ZN_edge_connector_nv_9_ac_9_co + f_ZN_edge_nv_8_nv_9_1
   + f_ZN_edge_nv_8_nv_9_0 - f_ZN_edge_nv_9_nv_12_1
   - f_ZN_edge_nv_9_nv_12_0 - cap_ZN_nv_9 = 0
 flow_conservation_ZN_pp_9: f_ZN_edge_connector_pv_9_pp_9_co - cap_ZN_pp_9
   = 0
 middle_node_ZN_pv_9: cap_ZN_pv_9 = 0
 flow_conservation_ZN_pv_9: - f_ZN_edge_connector_pv_9_pp_9_co
   - f_ZN_edge_connector_pv_9_ac_9_co + f_ZN_edge_pv_8_pv_9_3
   + f_ZN_edge_pv_8_pv_9_2 - f_ZN_edge_pv_9_pv_12_3
   - f_ZN_edge_pv_9_pv_12_2 - cap_ZN_pv_9 = 0
 flow_conservation_ZN_ac_12: f_ZN_edge_connector_pv_12_ac_12_co
   + f_ZN_edge_connector_nv_12_ac_12_co - cap_ZN_ac_12 = 0
 middle_node_ZN_m1_12: cap_ZN_m1_12 = 0
 flow_conservation_ZN_m1_12: f_ZN_edge_m1_8_m1_12_r_7
   + f_ZN_edge_m1_8_m1_12_r_6 + f_ZN_edge_m1_8_m1_12_r_5
   + f_ZN_edge_m1_8_m1_12_r_4 - f_ZN_edge_via_enable_m1_12_pv_12
   - f_ZN_edge_via_enable_m1_12_nv_12 - cap_ZN_m1_12 = 0
 flow_conservation_ZN_nn_12: f_ZN_edge_connector_nv_12_nn_12_co
   - cap_ZN_nn_12 = 0
 middle_node_ZN_nv_12: cap_ZN_nv_12 = 0
 flow_conservation_ZN_nv_12: - f_ZN_edge_connector_nv_12_nn_12_co
   - f_ZN_edge_connector_nv_12_ac_12_co + f_ZN_edge_nv_9_nv_12_1
   + f_ZN_edge_nv_9_nv_12_0 - f_ZN_edge_nv_12_nv_15_1
   - f_ZN_edge_nv_12_nv_15_0 + f_ZN_edge_via_enable_m1_12_nv_12
   - cap_ZN_nv_12 = 0
 flow_conservation_ZN_pp_12: f_ZN_edge_connector_pv_12_pp_12_co
   - cap_ZN_pp_12 = 0
 middle_node_ZN_pv_12: cap_ZN_pv_12 = 0
 flow_conservation_ZN_pv_12: - f_ZN_edge_connector_pv_12_pp_12_co
   - f_ZN_edge_connector_pv_12_ac_12_co + f_ZN_edge_pv_9_pv_12_3
   + f_ZN_edge_pv_9_pv_12_2 - f_ZN_edge_pv_12_pv_15_3
   - f_ZN_edge_pv_12_pv_15_2 + f_ZN_edge_via_enable_m1_12_pv_12
   - cap_ZN_pv_12 = 0
 flow_conservation_ZN_ac_15: f_ZN_edge_connector_pv_15_ac_15_co
   + f_ZN_edge_connector_nv_15_ac_15_co - cap_ZN_ac_15 = 0
 flow_conservation_ZN_nn_15: f_ZN_edge_connector_nv_15_nn_15_co
   - cap_ZN_nn_15 = 0
 middle_node_ZN_nv_15: cap_ZN_nv_15 = 0
 flow_conservation_ZN_nv_15: - f_ZN_edge_connector_nv_15_nn_15_co
   - f_ZN_edge_connector_nv_15_ac_15_co + f_ZN_edge_nv_12_nv_15_1
   + f_ZN_edge_nv_12_nv_15_0 - cap_ZN_nv_15 = 0
 flow_conservation_ZN_pp_15: f_ZN_edge_connector_pv_15_pp_15_co
   - cap_ZN_pp_15 = 0
 middle_node_ZN_pv_15: cap_ZN_pv_15 = 0
 flow_conservation_ZN_pv_15: - f_ZN_edge_connector_pv_15_pp_15_co
   - f_ZN_edge_connector_pv_15_ac_15_co + f_ZN_edge_pv_12_pv_15_3
   + f_ZN_edge_pv_12_pv_15_2 - cap_ZN_pv_15 = 0
 via_conflict_0: v_A2_v[0] + v_net16_v[0] + v_A1_v[0] + v_ZN_v[0] <= 1
 via_conflict_1: v_A2_v[1] + v_net16_v[1] + v_A1_v[1] + v_ZN_v[1] <= 1
 via_conflict_2: v_A2_v[2] + v_net16_v[2] + v_A1_v[2] + v_ZN_v[2] <= 1
 row_selection_conflict_pv_3_pv_4_3: y_A2_edge_pv_3_pv_4_3
   + y_net16_edge_pv_3_pv_4_3 + y_A1_edge_pv_3_pv_4_3
   + y_ZN_edge_pv_3_pv_4_3 <= 1
 row_selection_conflict_pv_3_pv_4_2: y_A2_edge_pv_3_pv_4_2
   + y_net16_edge_pv_3_pv_4_2 + y_A1_edge_pv_3_pv_4_2
   + y_ZN_edge_pv_3_pv_4_2 <= 1
 consecutive_row_usage_conflict_for_one_net_A2_pv_3_pv_4:
   y_A2_edge_pv_3_pv_4_3 + y_A2_edge_pv_3_pv_4_2 <= 1
 consecutive_row_usage_conflict_for_one_net_net16_pv_3_pv_4:
   y_net16_edge_pv_3_pv_4_3 + y_net16_edge_pv_3_pv_4_2 <= 1
 consecutive_row_usage_conflict_for_one_net_A1_pv_3_pv_4:
   y_A1_edge_pv_3_pv_4_3 + y_A1_edge_pv_3_pv_4_2 <= 1
 consecutive_row_usage_conflict_for_one_net_ZN_pv_3_pv_4:
   y_ZN_edge_pv_3_pv_4_3 + y_ZN_edge_pv_3_pv_4_2 <= 1
 row_selection_conflict_nv_3_nv_4_1: y_A2_edge_nv_3_nv_4_1
   + y_net16_edge_nv_3_nv_4_1 + y_A1_edge_nv_3_nv_4_1
   + y_ZN_edge_nv_3_nv_4_1 <= 1
 row_selection_conflict_nv_3_nv_4_0: y_A2_edge_nv_3_nv_4_0
   + y_net16_edge_nv_3_nv_4_0 + y_A1_edge_nv_3_nv_4_0
   + y_ZN_edge_nv_3_nv_4_0 <= 1
 consecutive_row_usage_conflict_for_one_net_A2_nv_3_nv_4:
   y_A2_edge_nv_3_nv_4_1 + y_A2_edge_nv_3_nv_4_0 <= 1
 consecutive_row_usage_conflict_for_one_net_net16_nv_3_nv_4:
   y_net16_edge_nv_3_nv_4_1 + y_net16_edge_nv_3_nv_4_0 <= 1
 consecutive_row_usage_conflict_for_one_net_A1_nv_3_nv_4:
   y_A1_edge_nv_3_nv_4_1 + y_A1_edge_nv_3_nv_4_0 <= 1
 consecutive_row_usage_conflict_for_one_net_ZN_nv_3_nv_4:
   y_ZN_edge_nv_3_nv_4_1 + y_ZN_edge_nv_3_nv_4_0 <= 1
 row_selection_conflict_pv_4_pv_6_3: y_A2_edge_pv_4_pv_6_3
   + y_net16_edge_pv_4_pv_6_3 + y_A1_edge_pv_4_pv_6_3
   + y_ZN_edge_pv_4_pv_6_3 <= 1
 row_selection_conflict_pv_4_pv_6_2: y_A2_edge_pv_4_pv_6_2
   + y_net16_edge_pv_4_pv_6_2 + y_A1_edge_pv_4_pv_6_2
   + y_ZN_edge_pv_4_pv_6_2 <= 1
 consecutive_row_usage_conflict_for_one_net_A2_pv_4_pv_6:
   y_A2_edge_pv_4_pv_6_3 + y_A2_edge_pv_4_pv_6_2 <= 1
 consecutive_row_usage_conflict_for_one_net_net16_pv_4_pv_6:
   y_net16_edge_pv_4_pv_6_3 + y_net16_edge_pv_4_pv_6_2 <= 1
 consecutive_row_usage_conflict_for_one_net_A1_pv_4_pv_6:
   y_A1_edge_pv_4_pv_6_3 + y_A1_edge_pv_4_pv_6_2 <= 1
 consecutive_row_usage_conflict_for_one_net_ZN_pv_4_pv_6:
   y_ZN_edge_pv_4_pv_6_3 + y_ZN_edge_pv_4_pv_6_2 <= 1
 row_selection_conflict_nv_4_nv_6_1: y_A2_edge_nv_4_nv_6_1
   + y_net16_edge_nv_4_nv_6_1 + y_A1_edge_nv_4_nv_6_1
   + y_ZN_edge_nv_4_nv_6_1 <= 1
 row_selection_conflict_nv_4_nv_6_0: y_A2_edge_nv_4_nv_6_0
   + y_net16_edge_nv_4_nv_6_0 + y_A1_edge_nv_4_nv_6_0
   + y_ZN_edge_nv_4_nv_6_0 <= 1
 consecutive_row_usage_conflict_for_one_net_A2_nv_4_nv_6:
   y_A2_edge_nv_4_nv_6_1 + y_A2_edge_nv_4_nv_6_0 <= 1
 consecutive_row_usage_conflict_for_one_net_net16_nv_4_nv_6:
   y_net16_edge_nv_4_nv_6_1 + y_net16_edge_nv_4_nv_6_0 <= 1
 consecutive_row_usage_conflict_for_one_net_A1_nv_4_nv_6:
   y_A1_edge_nv_4_nv_6_1 + y_A1_edge_nv_4_nv_6_0 <= 1
 consecutive_row_usage_conflict_for_one_net_ZN_nv_4_nv_6:
   y_ZN_edge_nv_4_nv_6_1 + y_ZN_edge_nv_4_nv_6_0 <= 1
 row_selection_conflict_pv_6_pv_8_3: y_A2_edge_pv_6_pv_8_3
   + y_net16_edge_pv_6_pv_8_3 + y_A1_edge_pv_6_pv_8_3
   + y_ZN_edge_pv_6_pv_8_3 <= 1
 row_selection_conflict_pv_6_pv_8_2: y_A2_edge_pv_6_pv_8_2
   + y_net16_edge_pv_6_pv_8_2 + y_A1_edge_pv_6_pv_8_2
   + y_ZN_edge_pv_6_pv_8_2 <= 1
 consecutive_row_usage_conflict_for_one_net_A2_pv_6_pv_8:
   y_A2_edge_pv_6_pv_8_3 + y_A2_edge_pv_6_pv_8_2 <= 1
 consecutive_row_usage_conflict_for_one_net_net16_pv_6_pv_8:
   y_net16_edge_pv_6_pv_8_3 + y_net16_edge_pv_6_pv_8_2 <= 1
 consecutive_row_usage_conflict_for_one_net_A1_pv_6_pv_8:
   y_A1_edge_pv_6_pv_8_3 + y_A1_edge_pv_6_pv_8_2 <= 1
 consecutive_row_usage_conflict_for_one_net_ZN_pv_6_pv_8:
   y_ZN_edge_pv_6_pv_8_3 + y_ZN_edge_pv_6_pv_8_2 <= 1
 row_selection_conflict_nv_6_nv_8_1: y_A2_edge_nv_6_nv_8_1
   + y_net16_edge_nv_6_nv_8_1 + y_A1_edge_nv_6_nv_8_1
   + y_ZN_edge_nv_6_nv_8_1 <= 1
 row_selection_conflict_nv_6_nv_8_0: y_A2_edge_nv_6_nv_8_0
   + y_net16_edge_nv_6_nv_8_0 + y_A1_edge_nv_6_nv_8_0
   + y_ZN_edge_nv_6_nv_8_0 <= 1
 consecutive_row_usage_conflict_for_one_net_A2_nv_6_nv_8:
   y_A2_edge_nv_6_nv_8_1 + y_A2_edge_nv_6_nv_8_0 <= 1
 consecutive_row_usage_conflict_for_one_net_net16_nv_6_nv_8:
   y_net16_edge_nv_6_nv_8_1 + y_net16_edge_nv_6_nv_8_0 <= 1
 consecutive_row_usage_conflict_for_one_net_A1_nv_6_nv_8:
   y_A1_edge_nv_6_nv_8_1 + y_A1_edge_nv_6_nv_8_0 <= 1
 consecutive_row_usage_conflict_for_one_net_ZN_nv_6_nv_8:
   y_ZN_edge_nv_6_nv_8_1 + y_ZN_edge_nv_6_nv_8_0 <= 1
 row_selection_conflict_pv_8_pv_9_3: y_A2_edge_pv_8_pv_9_3
   + y_net16_edge_pv_8_pv_9_3 + y_A1_edge_pv_8_pv_9_3
   + y_ZN_edge_pv_8_pv_9_3 <= 1
 row_selection_conflict_pv_8_pv_9_2: y_A2_edge_pv_8_pv_9_2
   + y_net16_edge_pv_8_pv_9_2 + y_A1_edge_pv_8_pv_9_2
   + y_ZN_edge_pv_8_pv_9_2 <= 1
 consecutive_row_usage_conflict_for_one_net_A2_pv_8_pv_9:
   y_A2_edge_pv_8_pv_9_3 + y_A2_edge_pv_8_pv_9_2 <= 1
 consecutive_row_usage_conflict_for_one_net_net16_pv_8_pv_9:
   y_net16_edge_pv_8_pv_9_3 + y_net16_edge_pv_8_pv_9_2 <= 1
 consecutive_row_usage_conflict_for_one_net_A1_pv_8_pv_9:
   y_A1_edge_pv_8_pv_9_3 + y_A1_edge_pv_8_pv_9_2 <= 1
 consecutive_row_usage_conflict_for_one_net_ZN_pv_8_pv_9:
   y_ZN_edge_pv_8_pv_9_3 + y_ZN_edge_pv_8_pv_9_2 <= 1
 row_selection_conflict_nv_8_nv_9_1: y_A2_edge_nv_8_nv_9_1
   + y_net16_edge_nv_8_nv_9_1 + y_A1_edge_nv_8_nv_9_1
   + y_ZN_edge_nv_8_nv_9_1 <= 1
 row_selection_conflict_nv_8_nv_9_0: y_A2_edge_nv_8_nv_9_0
   + y_net16_edge_nv_8_nv_9_0 + y_A1_edge_nv_8_nv_9_0
   + y_ZN_edge_nv_8_nv_9_0 <= 1
 consecutive_row_usage_conflict_for_one_net_A2_nv_8_nv_9:
   y_A2_edge_nv_8_nv_9_1 + y_A2_edge_nv_8_nv_9_0 <= 1
 consecutive_row_usage_conflict_for_one_net_net16_nv_8_nv_9:
   y_net16_edge_nv_8_nv_9_1 + y_net16_edge_nv_8_nv_9_0 <= 1
 consecutive_row_usage_conflict_for_one_net_A1_nv_8_nv_9:
   y_A1_edge_nv_8_nv_9_1 + y_A1_edge_nv_8_nv_9_0 <= 1
 consecutive_row_usage_conflict_for_one_net_ZN_nv_8_nv_9:
   y_ZN_edge_nv_8_nv_9_1 + y_ZN_edge_nv_8_nv_9_0 <= 1
 row_selection_conflict_pv_9_pv_12_3: y_A2_edge_pv_9_pv_12_3
   + y_net16_edge_pv_9_pv_12_3 + y_A1_edge_pv_9_pv_12_3
   + y_ZN_edge_pv_9_pv_12_3 <= 1
 row_selection_conflict_pv_9_pv_12_2: y_A2_edge_pv_9_pv_12_2
   + y_net16_edge_pv_9_pv_12_2 + y_A1_edge_pv_9_pv_12_2
   + y_ZN_edge_pv_9_pv_12_2 <= 1
 consecutive_row_usage_conflict_for_one_net_A2_pv_9_pv_12:
   y_A2_edge_pv_9_pv_12_3 + y_A2_edge_pv_9_pv_12_2 <= 1
 consecutive_row_usage_conflict_for_one_net_net16_pv_9_pv_12:
   y_net16_edge_pv_9_pv_12_3 + y_net16_edge_pv_9_pv_12_2 <= 1
 consecutive_row_usage_conflict_for_one_net_A1_pv_9_pv_12:
   y_A1_edge_pv_9_pv_12_3 + y_A1_edge_pv_9_pv_12_2 <= 1
 consecutive_row_usage_conflict_for_one_net_ZN_pv_9_pv_12:
   y_ZN_edge_pv_9_pv_12_3 + y_ZN_edge_pv_9_pv_12_2 <= 1
 row_selection_conflict_nv_9_nv_12_1: y_A2_edge_nv_9_nv_12_1
   + y_net16_edge_nv_9_nv_12_1 + y_A1_edge_nv_9_nv_12_1
   + y_ZN_edge_nv_9_nv_12_1 <= 1
 row_selection_conflict_nv_9_nv_12_0: y_A2_edge_nv_9_nv_12_0
   + y_net16_edge_nv_9_nv_12_0 + y_A1_edge_nv_9_nv_12_0
   + y_ZN_edge_nv_9_nv_12_0 <= 1
 consecutive_row_usage_conflict_for_one_net_A2_nv_9_nv_12:
   y_A2_edge_nv_9_nv_12_1 + y_A2_edge_nv_9_nv_12_0 <= 1
 consecutive_row_usage_conflict_for_one_net_net16_nv_9_nv_12:
   y_net16_edge_nv_9_nv_12_1 + y_net16_edge_nv_9_nv_12_0 <= 1
 consecutive_row_usage_conflict_for_one_net_A1_nv_9_nv_12:
   y_A1_edge_nv_9_nv_12_1 + y_A1_edge_nv_9_nv_12_0 <= 1
 consecutive_row_usage_conflict_for_one_net_ZN_nv_9_nv_12:
   y_ZN_edge_nv_9_nv_12_1 + y_ZN_edge_nv_9_nv_12_0 <= 1
 row_selection_conflict_pv_12_pv_15_3: y_A2_edge_pv_12_pv_15_3
   + y_net16_edge_pv_12_pv_15_3 + y_A1_edge_pv_12_pv_15_3
   + y_ZN_edge_pv_12_pv_15_3 <= 1
 row_selection_conflict_pv_12_pv_15_2: y_A2_edge_pv_12_pv_15_2
   + y_net16_edge_pv_12_pv_15_2 + y_A1_edge_pv_12_pv_15_2
   + y_ZN_edge_pv_12_pv_15_2 <= 1
 consecutive_row_usage_conflict_for_one_net_A2_pv_12_pv_15:
   y_A2_edge_pv_12_pv_15_3 + y_A2_edge_pv_12_pv_15_2 <= 1
 consecutive_row_usage_conflict_for_one_net_net16_pv_12_pv_15:
   y_net16_edge_pv_12_pv_15_3 + y_net16_edge_pv_12_pv_15_2 <= 1
 consecutive_row_usage_conflict_for_one_net_A1_pv_12_pv_15:
   y_A1_edge_pv_12_pv_15_3 + y_A1_edge_pv_12_pv_15_2 <= 1
 consecutive_row_usage_conflict_for_one_net_ZN_pv_12_pv_15:
   y_ZN_edge_pv_12_pv_15_3 + y_ZN_edge_pv_12_pv_15_2 <= 1
 row_selection_conflict_nv_12_nv_15_1: y_A2_edge_nv_12_nv_15_1
   + y_net16_edge_nv_12_nv_15_1 + y_A1_edge_nv_12_nv_15_1
   + y_ZN_edge_nv_12_nv_15_1 <= 1
 row_selection_conflict_nv_12_nv_15_0: y_A2_edge_nv_12_nv_15_0
   + y_net16_edge_nv_12_nv_15_0 + y_A1_edge_nv_12_nv_15_0
   + y_ZN_edge_nv_12_nv_15_0 <= 1
 consecutive_row_usage_conflict_for_one_net_A2_nv_12_nv_15:
   y_A2_edge_nv_12_nv_15_1 + y_A2_edge_nv_12_nv_15_0 <= 1
 consecutive_row_usage_conflict_for_one_net_net16_nv_12_nv_15:
   y_net16_edge_nv_12_nv_15_1 + y_net16_edge_nv_12_nv_15_0 <= 1
 consecutive_row_usage_conflict_for_one_net_A1_nv_12_nv_15:
   y_A1_edge_nv_12_nv_15_1 + y_A1_edge_nv_12_nv_15_0 <= 1
 consecutive_row_usage_conflict_for_one_net_ZN_nv_12_nv_15:
   y_ZN_edge_nv_12_nv_15_1 + y_ZN_edge_nv_12_nv_15_0 <= 1
 track_cost_0_3: t_c_0_3 - t_A2_c_r[0,3] - t_net16_c_r[0,3] - t_A1_c_r[0,3]
   - t_ZN_c_r[0,3] = 0
 max_track_0_3: t_c_0_3 + t_eol_c_r[0,3] <= 1
 track_cost_0_2: t_c_0_2 - t_A2_c_r[0,2] - t_net16_c_r[0,2] - t_A1_c_r[0,2]
   - t_ZN_c_r[0,2] = 0
 max_track_0_2: t_c_0_2 + t_eol_c_r[0,2] <= 1
 track_cost_0_1: t_c_0_1 - t_A2_c_r[0,1] - t_net16_c_r[0,1] - t_A1_c_r[0,1]
   - t_ZN_c_r[0,1] = 0
 max_track_0_1: t_c_0_1 + t_eol_c_r[0,1] <= 1
 track_cost_0_0: t_c_0_0 - t_A2_c_r[0,0] - t_net16_c_r[0,0] - t_A1_c_r[0,0]
   - t_ZN_c_r[0,0] = 0
 max_track_0_0: t_c_0_0 + t_eol_c_r[0,0] <= 1
 uppertrack_cost_0_7: ut_c_0_7 - ut_A2_c_r[0,7] - ut_net16_c_r[0,7]
   - ut_A1_c_r[0,7] - ut_ZN_c_r[0,7] = 0
 max_uppertrack_0_7: ut_c_0_7 + ut_eol_c_r[0,7] <= 1
 uppertrack_cost_0_6: ut_c_0_6 - ut_A2_c_r[0,6] - ut_net16_c_r[0,6]
   - ut_A1_c_r[0,6] - ut_ZN_c_r[0,6] = 0
 max_uppertrack_0_6: ut_c_0_6 + ut_eol_c_r[0,6] <= 1
 uppertrack_cost_0_5: ut_c_0_5 - ut_A2_c_r[0,5] - ut_net16_c_r[0,5]
   - ut_A1_c_r[0,5] - ut_ZN_c_r[0,5] = 0
 max_uppertrack_0_5: ut_c_0_5 + ut_eol_c_r[0,5] <= 1
 uppertrack_cost_0_4: ut_c_0_4 - ut_A2_c_r[0,4] - ut_net16_c_r[0,4]
   - ut_A1_c_r[0,4] - ut_ZN_c_r[0,4] = 0
 max_uppertrack_0_4: ut_c_0_4 + ut_eol_c_r[0,4] <= 1
 track_cost_1_3: t_c_1_3 - t_A2_c_r[1,3] - t_net16_c_r[1,3] - t_A1_c_r[1,3]
   - t_ZN_c_r[1,3] = 0
 max_track_1_3: t_c_1_3 + t_eol_c_r[1,3] <= 1
 track_cost_1_2: t_c_1_2 - t_A2_c_r[1,2] - t_net16_c_r[1,2] - t_A1_c_r[1,2]
   - t_ZN_c_r[1,2] = 0
 max_track_1_2: t_c_1_2 + t_eol_c_r[1,2] <= 1
 track_cost_1_1: t_c_1_1 - t_A2_c_r[1,1] - t_net16_c_r[1,1] - t_A1_c_r[1,1]
   - t_ZN_c_r[1,1] = 0
 max_track_1_1: t_c_1_1 + t_eol_c_r[1,1] <= 1
 track_cost_1_0: t_c_1_0 - t_A2_c_r[1,0] - t_net16_c_r[1,0] - t_A1_c_r[1,0]
   - t_ZN_c_r[1,0] = 0
 max_track_1_0: t_c_1_0 + t_eol_c_r[1,0] <= 1
 uppertrack_cost_1_7: ut_c_1_7 - ut_A2_c_r[1,7] - ut_net16_c_r[1,7]
   - ut_A1_c_r[1,7] - ut_ZN_c_r[1,7] = 0
 max_uppertrack_1_7: ut_c_1_7 + ut_eol_c_r[1,7] <= 1
 uppertrack_cost_1_6: ut_c_1_6 - ut_A2_c_r[1,6] - ut_net16_c_r[1,6]
   - ut_A1_c_r[1,6] - ut_ZN_c_r[1,6] = 0
 max_uppertrack_1_6: ut_c_1_6 + ut_eol_c_r[1,6] <= 1
 uppertrack_cost_1_5: ut_c_1_5 - ut_A2_c_r[1,5] - ut_net16_c_r[1,5]
   - ut_A1_c_r[1,5] - ut_ZN_c_r[1,5] = 0
 max_uppertrack_1_5: ut_c_1_5 + ut_eol_c_r[1,5] <= 1
 uppertrack_cost_1_4: ut_c_1_4 - ut_A2_c_r[1,4] - ut_net16_c_r[1,4]
   - ut_A1_c_r[1,4] - ut_ZN_c_r[1,4] = 0
 max_uppertrack_1_4: ut_c_1_4 + ut_eol_c_r[1,4] <= 1
 track_cost_2_3: t_c_2_3 - t_A2_c_r[2,3] - t_net16_c_r[2,3] - t_A1_c_r[2,3]
   - t_ZN_c_r[2,3] = 0
 max_track_2_3: t_c_2_3 + t_eol_c_r[2,3] <= 1
 track_cost_2_2: t_c_2_2 - t_A2_c_r[2,2] - t_net16_c_r[2,2] - t_A1_c_r[2,2]
   - t_ZN_c_r[2,2] = 0
 max_track_2_2: t_c_2_2 + t_eol_c_r[2,2] <= 1
 track_cost_2_1: t_c_2_1 - t_A2_c_r[2,1] - t_net16_c_r[2,1] - t_A1_c_r[2,1]
   - t_ZN_c_r[2,1] = 0
 max_track_2_1: t_c_2_1 + t_eol_c_r[2,1] <= 1
 track_cost_2_0: t_c_2_0 - t_A2_c_r[2,0] - t_net16_c_r[2,0] - t_A1_c_r[2,0]
   - t_ZN_c_r[2,0] = 0
 max_track_2_0: t_c_2_0 + t_eol_c_r[2,0] <= 1
 uppertrack_cost_2_7: ut_c_2_7 - ut_A2_c_r[2,7] - ut_net16_c_r[2,7]
   - ut_A1_c_r[2,7] - ut_ZN_c_r[2,7] = 0
 max_uppertrack_2_7: ut_c_2_7 + ut_eol_c_r[2,7] <= 1
 uppertrack_cost_2_6: ut_c_2_6 - ut_A2_c_r[2,6] - ut_net16_c_r[2,6]
   - ut_A1_c_r[2,6] - ut_ZN_c_r[2,6] = 0
 max_uppertrack_2_6: ut_c_2_6 + ut_eol_c_r[2,6] <= 1
 uppertrack_cost_2_5: ut_c_2_5 - ut_A2_c_r[2,5] - ut_net16_c_r[2,5]
   - ut_A1_c_r[2,5] - ut_ZN_c_r[2,5] = 0
 max_uppertrack_2_5: ut_c_2_5 + ut_eol_c_r[2,5] <= 1
 uppertrack_cost_2_4: ut_c_2_4 - ut_A2_c_r[2,4] - ut_net16_c_r[2,4]
   - ut_A1_c_r[2,4] - ut_ZN_c_r[2,4] = 0
 max_uppertrack_2_4: ut_c_2_4 + ut_eol_c_r[2,4] <= 1
 track_cost_3_3: t_c_3_3 - t_A2_c_r[3,3] - t_net16_c_r[3,3] - t_A1_c_r[3,3]
   - t_ZN_c_r[3,3] = 0
 max_track_3_3: t_c_3_3 + t_eol_c_r[3,3] <= 1
 track_cost_3_2: t_c_3_2 - t_A2_c_r[3,2] - t_net16_c_r[3,2] - t_A1_c_r[3,2]
   - t_ZN_c_r[3,2] = 0
 max_track_3_2: t_c_3_2 + t_eol_c_r[3,2] <= 1
 track_cost_3_1: t_c_3_1 - t_A2_c_r[3,1] - t_net16_c_r[3,1] - t_A1_c_r[3,1]
   - t_ZN_c_r[3,1] = 0
 max_track_3_1: t_c_3_1 + t_eol_c_r[3,1] <= 1
 track_cost_3_0: t_c_3_0 - t_A2_c_r[3,0] - t_net16_c_r[3,0] - t_A1_c_r[3,0]
   - t_ZN_c_r[3,0] = 0
 max_track_3_0: t_c_3_0 + t_eol_c_r[3,0] <= 1
 uppertrack_cost_3_7: ut_c_3_7 - ut_A2_c_r[3,7] - ut_net16_c_r[3,7]
   - ut_A1_c_r[3,7] - ut_ZN_c_r[3,7] = 0
 max_uppertrack_3_7: ut_c_3_7 + ut_eol_c_r[3,7] <= 1
 uppertrack_cost_3_6: ut_c_3_6 - ut_A2_c_r[3,6] - ut_net16_c_r[3,6]
   - ut_A1_c_r[3,6] - ut_ZN_c_r[3,6] = 0
 max_uppertrack_3_6: ut_c_3_6 + ut_eol_c_r[3,6] <= 1
 uppertrack_cost_3_5: ut_c_3_5 - ut_A2_c_r[3,5] - ut_net16_c_r[3,5]
   - ut_A1_c_r[3,5] - ut_ZN_c_r[3,5] = 0
 max_uppertrack_3_5: ut_c_3_5 + ut_eol_c_r[3,5] <= 1
 uppertrack_cost_3_4: ut_c_3_4 - ut_A2_c_r[3,4] - ut_net16_c_r[3,4]
   - ut_A1_c_r[3,4] - ut_ZN_c_r[3,4] = 0
 max_uppertrack_3_4: ut_c_3_4 + ut_eol_c_r[3,4] <= 1
 track_cost_4_3: t_c_4_3 - t_A2_c_r[4,3] - t_net16_c_r[4,3] - t_A1_c_r[4,3]
   - t_ZN_c_r[4,3] = 0
 max_track_4_3: t_c_4_3 + t_eol_c_r[4,3] <= 1
 track_cost_4_2: t_c_4_2 - t_A2_c_r[4,2] - t_net16_c_r[4,2] - t_A1_c_r[4,2]
   - t_ZN_c_r[4,2] = 0
 max_track_4_2: t_c_4_2 + t_eol_c_r[4,2] <= 1
 track_cost_4_1: t_c_4_1 - t_A2_c_r[4,1] - t_net16_c_r[4,1] - t_A1_c_r[4,1]
   - t_ZN_c_r[4,1] = 0
 max_track_4_1: t_c_4_1 + t_eol_c_r[4,1] <= 1
 track_cost_4_0: t_c_4_0 - t_A2_c_r[4,0] - t_net16_c_r[4,0] - t_A1_c_r[4,0]
   - t_ZN_c_r[4,0] = 0
 max_track_4_0: t_c_4_0 + t_eol_c_r[4,0] <= 1
 uppertrack_cost_4_7: ut_c_4_7 - ut_A2_c_r[4,7] - ut_net16_c_r[4,7]
   - ut_A1_c_r[4,7] - ut_ZN_c_r[4,7] = 0
 max_uppertrack_4_7: ut_c_4_7 + ut_eol_c_r[4,7] <= 1
 uppertrack_cost_4_6: ut_c_4_6 - ut_A2_c_r[4,6] - ut_net16_c_r[4,6]
   - ut_A1_c_r[4,6] - ut_ZN_c_r[4,6] = 0
 max_uppertrack_4_6: ut_c_4_6 + ut_eol_c_r[4,6] <= 1
 uppertrack_cost_4_5: ut_c_4_5 - ut_A2_c_r[4,5] - ut_net16_c_r[4,5]
   - ut_A1_c_r[4,5] - ut_ZN_c_r[4,5] = 0
 max_uppertrack_4_5: ut_c_4_5 + ut_eol_c_r[4,5] <= 1
 uppertrack_cost_4_4: ut_c_4_4 - ut_A2_c_r[4,4] - ut_net16_c_r[4,4]
   - ut_A1_c_r[4,4] - ut_ZN_c_r[4,4] = 0
 max_uppertrack_4_4: ut_c_4_4 + ut_eol_c_r[4,4] <= 1
 via_used_binary_upper: indicator_A1_pp_3 + indicator_A1_nn_3
   + indicator_A1_ac_3 + indicator_A1_pp_6 + indicator_A1_nn_6
   + indicator_A1_ac_6 + indicator_A1_pp_9 + indicator_A1_nn_9
   + indicator_A1_ac_9 + indicator_A1_pp_12 + indicator_A1_nn_12
   + indicator_A1_ac_12 + indicator_A1_pp_15 + indicator_A1_nn_15
   + indicator_A1_ac_15 + 20 one_pin_net_bin_A1 <= 21
 via_used_binary_lower: indicator_A1_pp_3 + indicator_A1_nn_3
   + indicator_A1_ac_3 + indicator_A1_pp_6 + indicator_A1_nn_6
   + indicator_A1_ac_6 + indicator_A1_pp_9 + indicator_A1_nn_9
   + indicator_A1_ac_9 + indicator_A1_pp_12 + indicator_A1_nn_12
   + indicator_A1_ac_12 + indicator_A1_pp_15 + indicator_A1_nn_15
   + indicator_A1_ac_15 + 20 one_pin_net_bin_A1 >= 2
 cond_via_1_3_A1: cond_col1_row3_netA1 - one_pin_net_bin_A1 <= 0
 cond_pinmetal_1_3_A1: - t_A1_c_r[0,3] - t_A1_c_r[1,3] - t_A1_c_r[2,3]
   - t_A1_c_r[3,3] + cond_col1_row3_netA1 <= 0
 pin_is_there1_pinmetal_1_3_A1: - t_A1_c_r[0,3] - t_A1_c_r[1,3]
   - t_A1_c_r[2,3] - t_A1_c_r[3,3] + pin_is_there_3_A1 <= 0
 pin_is_there2_pinmetal_1_3_A1: - 0.25 t_A1_c_r[0,3] - 0.25 t_A1_c_r[1,3]
   - 0.25 t_A1_c_r[2,3] - 0.25 t_A1_c_r[3,3] + pin_is_there_3_A1 >= 0
 cond_upper_1_3_A1: t_A2_c_r[0,3] + t_A2_c_r[1,3] + t_A2_c_r[2,3]
   + t_A2_c_r[3,3] + t_net16_c_r[0,3] + t_net16_c_r[1,3] + t_net16_c_r[2,3]
   + t_net16_c_r[3,3] + t_ZN_c_r[0,3] + t_ZN_c_r[1,3] + t_ZN_c_r[2,3]
   + t_ZN_c_r[3,3] + 20 cond_col1_row3_netA1 <= 20
 cond_lower_1_3_A1: t_A2_c_r[0,3] + t_A2_c_r[1,3] + t_A2_c_r[2,3]
   + t_A2_c_r[3,3] + t_net16_c_r[0,3] + t_net16_c_r[1,3] + t_net16_c_r[2,3]
   + t_net16_c_r[3,3] + t_ZN_c_r[0,3] + t_ZN_c_r[1,3] + t_ZN_c_r[2,3]
   + t_ZN_c_r[3,3] + cond_col1_row3_netA1 - one_pin_net_bin_A1
   - pin_is_there_3_A1 >= -1
 via_used_binary_upper: indicator_A2_pp_3 + indicator_A2_nn_3
   + indicator_A2_ac_3 + indicator_A2_pp_6 + indicator_A2_nn_6
   + indicator_A2_ac_6 + indicator_A2_pp_9 + indicator_A2_nn_9
   + indicator_A2_ac_9 + indicator_A2_pp_12 + indicator_A2_nn_12
   + indicator_A2_ac_12 + indicator_A2_pp_15 + indicator_A2_nn_15
   + indicator_A2_ac_15 + 20 one_pin_net_bin_A2 <= 21
 via_used_binary_lower: indicator_A2_pp_3 + indicator_A2_nn_3
   + indicator_A2_ac_3 + indicator_A2_pp_6 + indicator_A2_nn_6
   + indicator_A2_ac_6 + indicator_A2_pp_9 + indicator_A2_nn_9
   + indicator_A2_ac_9 + indicator_A2_pp_12 + indicator_A2_nn_12
   + indicator_A2_ac_12 + indicator_A2_pp_15 + indicator_A2_nn_15
   + indicator_A2_ac_15 + 20 one_pin_net_bin_A2 >= 2
 cond_via_1_3_A2: cond_col1_row3_netA2 - one_pin_net_bin_A2 <= 0
 cond_pinmetal_1_3_A2: - t_A2_c_r[0,3] - t_A2_c_r[1,3] - t_A2_c_r[2,3]
   - t_A2_c_r[3,3] + cond_col1_row3_netA2 <= 0
 pin_is_there1_pinmetal_1_3_A2: - t_A2_c_r[0,3] - t_A2_c_r[1,3]
   - t_A2_c_r[2,3] - t_A2_c_r[3,3] + pin_is_there_3_A2 <= 0
 pin_is_there2_pinmetal_1_3_A2: - 0.25 t_A2_c_r[0,3] - 0.25 t_A2_c_r[1,3]
   - 0.25 t_A2_c_r[2,3] - 0.25 t_A2_c_r[3,3] + pin_is_there_3_A2 >= 0
 cond_upper_1_3_A2: t_net16_c_r[0,3] + t_net16_c_r[1,3] + t_net16_c_r[2,3]
   + t_net16_c_r[3,3] + t_A1_c_r[0,3] + t_A1_c_r[1,3] + t_A1_c_r[2,3]
   + t_A1_c_r[3,3] + t_ZN_c_r[0,3] + t_ZN_c_r[1,3] + t_ZN_c_r[2,3]
   + t_ZN_c_r[3,3] + 20 cond_col1_row3_netA2 <= 20
 cond_lower_1_3_A2: t_net16_c_r[0,3] + t_net16_c_r[1,3] + t_net16_c_r[2,3]
   + t_net16_c_r[3,3] + t_A1_c_r[0,3] + t_A1_c_r[1,3] + t_A1_c_r[2,3]
   + t_A1_c_r[3,3] + t_ZN_c_r[0,3] + t_ZN_c_r[1,3] + t_ZN_c_r[2,3]
   + t_ZN_c_r[3,3] + cond_col1_row3_netA2 - one_pin_net_bin_A2
   - pin_is_there_3_A2 >= -1
 via_used_binary_upper: indicator_ZN_pp_3 + indicator_ZN_nn_3
   + indicator_ZN_ac_3 + indicator_ZN_pp_6 + indicator_ZN_nn_6
   + indicator_ZN_ac_6 + indicator_ZN_pp_9 + indicator_ZN_nn_9
   + indicator_ZN_ac_9 + indicator_ZN_pp_12 + indicator_ZN_nn_12
   + indicator_ZN_ac_12 + indicator_ZN_pp_15 + indicator_ZN_nn_15
   + indicator_ZN_ac_15 + 20 one_pin_net_bin_ZN <= 21
 via_used_binary_lower: indicator_ZN_pp_3 + indicator_ZN_nn_3
   + indicator_ZN_ac_3 + indicator_ZN_pp_6 + indicator_ZN_nn_6
   + indicator_ZN_ac_6 + indicator_ZN_pp_9 + indicator_ZN_nn_9
   + indicator_ZN_ac_9 + indicator_ZN_pp_12 + indicator_ZN_nn_12
   + indicator_ZN_ac_12 + indicator_ZN_pp_15 + indicator_ZN_nn_15
   + indicator_ZN_ac_15 + 20 one_pin_net_bin_ZN >= 2
 cond_via_1_3_ZN: cond_col1_row3_netZN - one_pin_net_bin_ZN <= 0
 cond_pinmetal_1_3_ZN: - t_ZN_c_r[0,3] - t_ZN_c_r[1,3] - t_ZN_c_r[2,3]
   - t_ZN_c_r[3,3] + cond_col1_row3_netZN <= 0
 pin_is_there1_pinmetal_1_3_ZN: - t_ZN_c_r[0,3] - t_ZN_c_r[1,3]
   - t_ZN_c_r[2,3] - t_ZN_c_r[3,3] + pin_is_there_3_ZN <= 0
 pin_is_there2_pinmetal_1_3_ZN: - 0.25 t_ZN_c_r[0,3] - 0.25 t_ZN_c_r[1,3]
   - 0.25 t_ZN_c_r[2,3] - 0.25 t_ZN_c_r[3,3] + pin_is_there_3_ZN >= 0
 cond_upper_1_3_ZN: t_A2_c_r[0,3] + t_A2_c_r[1,3] + t_A2_c_r[2,3]
   + t_A2_c_r[3,3] + t_net16_c_r[0,3] + t_net16_c_r[1,3] + t_net16_c_r[2,3]
   + t_net16_c_r[3,3] + t_A1_c_r[0,3] + t_A1_c_r[1,3] + t_A1_c_r[2,3]
   + t_A1_c_r[3,3] + 20 cond_col1_row3_netZN <= 20
 cond_lower_1_3_ZN: t_A2_c_r[0,3] + t_A2_c_r[1,3] + t_A2_c_r[2,3]
   + t_A2_c_r[3,3] + t_net16_c_r[0,3] + t_net16_c_r[1,3] + t_net16_c_r[2,3]
   + t_net16_c_r[3,3] + t_A1_c_r[0,3] + t_A1_c_r[1,3] + t_A1_c_r[2,3]
   + t_A1_c_r[3,3] + cond_col1_row3_netZN - one_pin_net_bin_ZN
   - pin_is_there_3_ZN >= -1
 via_used_binary_upper: indicator_A1_pp_3 + indicator_A1_nn_3
   + indicator_A1_ac_3 + indicator_A1_pp_6 + indicator_A1_nn_6
   + indicator_A1_ac_6 + indicator_A1_pp_9 + indicator_A1_nn_9
   + indicator_A1_ac_9 + indicator_A1_pp_12 + indicator_A1_nn_12
   + indicator_A1_ac_12 + indicator_A1_pp_15 + indicator_A1_nn_15
   + indicator_A1_ac_15 + 20 one_pin_net_bin_A1 <= 21
 via_used_binary_lower: indicator_A1_pp_3 + indicator_A1_nn_3
   + indicator_A1_ac_3 + indicator_A1_pp_6 + indicator_A1_nn_6
   + indicator_A1_ac_6 + indicator_A1_pp_9 + indicator_A1_nn_9
   + indicator_A1_ac_9 + indicator_A1_pp_12 + indicator_A1_nn_12
   + indicator_A1_ac_12 + indicator_A1_pp_15 + indicator_A1_nn_15
   + indicator_A1_ac_15 + 20 one_pin_net_bin_A1 >= 2
 cond_via_1_2_A1: cond_col1_row2_netA1 - one_pin_net_bin_A1 <= 0
 cond_pinmetal_1_2_A1: - t_A1_c_r[0,2] - t_A1_c_r[1,2] - t_A1_c_r[2,2]
   - t_A1_c_r[3,2] + cond_col1_row2_netA1 <= 0
 pin_is_there1_pinmetal_1_2_A1: - t_A1_c_r[0,2] - t_A1_c_r[1,2]
   - t_A1_c_r[2,2] - t_A1_c_r[3,2] + pin_is_there_2_A1 <= 0
 pin_is_there2_pinmetal_1_2_A1: - 0.25 t_A1_c_r[0,2] - 0.25 t_A1_c_r[1,2]
   - 0.25 t_A1_c_r[2,2] - 0.25 t_A1_c_r[3,2] + pin_is_there_2_A1 >= 0
 cond_upper_1_2_A1: t_A2_c_r[0,2] + t_A2_c_r[1,2] + t_A2_c_r[2,2]
   + t_A2_c_r[3,2] + t_net16_c_r[0,2] + t_net16_c_r[1,2] + t_net16_c_r[2,2]
   + t_net16_c_r[3,2] + t_ZN_c_r[0,2] + t_ZN_c_r[1,2] + t_ZN_c_r[2,2]
   + t_ZN_c_r[3,2] + 20 cond_col1_row2_netA1 <= 20
 cond_lower_1_2_A1: t_A2_c_r[0,2] + t_A2_c_r[1,2] + t_A2_c_r[2,2]
   + t_A2_c_r[3,2] + t_net16_c_r[0,2] + t_net16_c_r[1,2] + t_net16_c_r[2,2]
   + t_net16_c_r[3,2] + t_ZN_c_r[0,2] + t_ZN_c_r[1,2] + t_ZN_c_r[2,2]
   + t_ZN_c_r[3,2] + cond_col1_row2_netA1 - one_pin_net_bin_A1
   - pin_is_there_2_A1 >= -1
 via_used_binary_upper: indicator_A2_pp_3 + indicator_A2_nn_3
   + indicator_A2_ac_3 + indicator_A2_pp_6 + indicator_A2_nn_6
   + indicator_A2_ac_6 + indicator_A2_pp_9 + indicator_A2_nn_9
   + indicator_A2_ac_9 + indicator_A2_pp_12 + indicator_A2_nn_12
   + indicator_A2_ac_12 + indicator_A2_pp_15 + indicator_A2_nn_15
   + indicator_A2_ac_15 + 20 one_pin_net_bin_A2 <= 21
 via_used_binary_lower: indicator_A2_pp_3 + indicator_A2_nn_3
   + indicator_A2_ac_3 + indicator_A2_pp_6 + indicator_A2_nn_6
   + indicator_A2_ac_6 + indicator_A2_pp_9 + indicator_A2_nn_9
   + indicator_A2_ac_9 + indicator_A2_pp_12 + indicator_A2_nn_12
   + indicator_A2_ac_12 + indicator_A2_pp_15 + indicator_A2_nn_15
   + indicator_A2_ac_15 + 20 one_pin_net_bin_A2 >= 2
 cond_via_1_2_A2: cond_col1_row2_netA2 - one_pin_net_bin_A2 <= 0
 cond_pinmetal_1_2_A2: - t_A2_c_r[0,2] - t_A2_c_r[1,2] - t_A2_c_r[2,2]
   - t_A2_c_r[3,2] + cond_col1_row2_netA2 <= 0
 pin_is_there1_pinmetal_1_2_A2: - t_A2_c_r[0,2] - t_A2_c_r[1,2]
   - t_A2_c_r[2,2] - t_A2_c_r[3,2] + pin_is_there_2_A2 <= 0
 pin_is_there2_pinmetal_1_2_A2: - 0.25 t_A2_c_r[0,2] - 0.25 t_A2_c_r[1,2]
   - 0.25 t_A2_c_r[2,2] - 0.25 t_A2_c_r[3,2] + pin_is_there_2_A2 >= 0
 cond_upper_1_2_A2: t_net16_c_r[0,2] + t_net16_c_r[1,2] + t_net16_c_r[2,2]
   + t_net16_c_r[3,2] + t_A1_c_r[0,2] + t_A1_c_r[1,2] + t_A1_c_r[2,2]
   + t_A1_c_r[3,2] + t_ZN_c_r[0,2] + t_ZN_c_r[1,2] + t_ZN_c_r[2,2]
   + t_ZN_c_r[3,2] + 20 cond_col1_row2_netA2 <= 20
 cond_lower_1_2_A2: t_net16_c_r[0,2] + t_net16_c_r[1,2] + t_net16_c_r[2,2]
   + t_net16_c_r[3,2] + t_A1_c_r[0,2] + t_A1_c_r[1,2] + t_A1_c_r[2,2]
   + t_A1_c_r[3,2] + t_ZN_c_r[0,2] + t_ZN_c_r[1,2] + t_ZN_c_r[2,2]
   + t_ZN_c_r[3,2] + cond_col1_row2_netA2 - one_pin_net_bin_A2
   - pin_is_there_2_A2 >= -1
 via_used_binary_upper: indicator_ZN_pp_3 + indicator_ZN_nn_3
   + indicator_ZN_ac_3 + indicator_ZN_pp_6 + indicator_ZN_nn_6
   + indicator_ZN_ac_6 + indicator_ZN_pp_9 + indicator_ZN_nn_9
   + indicator_ZN_ac_9 + indicator_ZN_pp_12 + indicator_ZN_nn_12
   + indicator_ZN_ac_12 + indicator_ZN_pp_15 + indicator_ZN_nn_15
   + indicator_ZN_ac_15 + 20 one_pin_net_bin_ZN <= 21
 via_used_binary_lower: indicator_ZN_pp_3 + indicator_ZN_nn_3
   + indicator_ZN_ac_3 + indicator_ZN_pp_6 + indicator_ZN_nn_6
   + indicator_ZN_ac_6 + indicator_ZN_pp_9 + indicator_ZN_nn_9
   + indicator_ZN_ac_9 + indicator_ZN_pp_12 + indicator_ZN_nn_12
   + indicator_ZN_ac_12 + indicator_ZN_pp_15 + indicator_ZN_nn_15
   + indicator_ZN_ac_15 + 20 one_pin_net_bin_ZN >= 2
 cond_via_1_2_ZN: cond_col1_row2_netZN - one_pin_net_bin_ZN <= 0
 cond_pinmetal_1_2_ZN: - t_ZN_c_r[0,2] - t_ZN_c_r[1,2] - t_ZN_c_r[2,2]
   - t_ZN_c_r[3,2] + cond_col1_row2_netZN <= 0
 pin_is_there1_pinmetal_1_2_ZN: - t_ZN_c_r[0,2] - t_ZN_c_r[1,2]
   - t_ZN_c_r[2,2] - t_ZN_c_r[3,2] + pin_is_there_2_ZN <= 0
 pin_is_there2_pinmetal_1_2_ZN: - 0.25 t_ZN_c_r[0,2] - 0.25 t_ZN_c_r[1,2]
   - 0.25 t_ZN_c_r[2,2] - 0.25 t_ZN_c_r[3,2] + pin_is_there_2_ZN >= 0
 cond_upper_1_2_ZN: t_A2_c_r[0,2] + t_A2_c_r[1,2] + t_A2_c_r[2,2]
   + t_A2_c_r[3,2] + t_net16_c_r[0,2] + t_net16_c_r[1,2] + t_net16_c_r[2,2]
   + t_net16_c_r[3,2] + t_A1_c_r[0,2] + t_A1_c_r[1,2] + t_A1_c_r[2,2]
   + t_A1_c_r[3,2] + 20 cond_col1_row2_netZN <= 20
 cond_lower_1_2_ZN: t_A2_c_r[0,2] + t_A2_c_r[1,2] + t_A2_c_r[2,2]
   + t_A2_c_r[3,2] + t_net16_c_r[0,2] + t_net16_c_r[1,2] + t_net16_c_r[2,2]
   + t_net16_c_r[3,2] + t_A1_c_r[0,2] + t_A1_c_r[1,2] + t_A1_c_r[2,2]
   + t_A1_c_r[3,2] + cond_col1_row2_netZN - one_pin_net_bin_ZN
   - pin_is_there_2_ZN >= -1
 via_used_binary_upper: indicator_A1_pp_3 + indicator_A1_nn_3
   + indicator_A1_ac_3 + indicator_A1_pp_6 + indicator_A1_nn_6
   + indicator_A1_ac_6 + indicator_A1_pp_9 + indicator_A1_nn_9
   + indicator_A1_ac_9 + indicator_A1_pp_12 + indicator_A1_nn_12
   + indicator_A1_ac_12 + indicator_A1_pp_15 + indicator_A1_nn_15
   + indicator_A1_ac_15 + 20 one_pin_net_bin_A1 <= 21
 via_used_binary_lower: indicator_A1_pp_3 + indicator_A1_nn_3
   + indicator_A1_ac_3 + indicator_A1_pp_6 + indicator_A1_nn_6
   + indicator_A1_ac_6 + indicator_A1_pp_9 + indicator_A1_nn_9
   + indicator_A1_ac_9 + indicator_A1_pp_12 + indicator_A1_nn_12
   + indicator_A1_ac_12 + indicator_A1_pp_15 + indicator_A1_nn_15
   + indicator_A1_ac_15 + 20 one_pin_net_bin_A1 >= 2
 cond_via_1_1_A1: cond_col1_row1_netA1 - one_pin_net_bin_A1 <= 0
 cond_pinmetal_1_1_A1: - t_A1_c_r[0,1] - t_A1_c_r[1,1] - t_A1_c_r[2,1]
   - t_A1_c_r[3,1] + cond_col1_row1_netA1 <= 0
 pin_is_there1_pinmetal_1_1_A1: - t_A1_c_r[0,1] - t_A1_c_r[1,1]
   - t_A1_c_r[2,1] - t_A1_c_r[3,1] + pin_is_there_1_A1 <= 0
 pin_is_there2_pinmetal_1_1_A1: - 0.25 t_A1_c_r[0,1] - 0.25 t_A1_c_r[1,1]
   - 0.25 t_A1_c_r[2,1] - 0.25 t_A1_c_r[3,1] + pin_is_there_1_A1 >= 0
 cond_upper_1_1_A1: t_A2_c_r[0,1] + t_A2_c_r[1,1] + t_A2_c_r[2,1]
   + t_A2_c_r[3,1] + t_net16_c_r[0,1] + t_net16_c_r[1,1] + t_net16_c_r[2,1]
   + t_net16_c_r[3,1] + t_ZN_c_r[0,1] + t_ZN_c_r[1,1] + t_ZN_c_r[2,1]
   + t_ZN_c_r[3,1] + 20 cond_col1_row1_netA1 <= 20
 cond_lower_1_1_A1: t_A2_c_r[0,1] + t_A2_c_r[1,1] + t_A2_c_r[2,1]
   + t_A2_c_r[3,1] + t_net16_c_r[0,1] + t_net16_c_r[1,1] + t_net16_c_r[2,1]
   + t_net16_c_r[3,1] + t_ZN_c_r[0,1] + t_ZN_c_r[1,1] + t_ZN_c_r[2,1]
   + t_ZN_c_r[3,1] + cond_col1_row1_netA1 - one_pin_net_bin_A1
   - pin_is_there_1_A1 >= -1
 via_used_binary_upper: indicator_A2_pp_3 + indicator_A2_nn_3
   + indicator_A2_ac_3 + indicator_A2_pp_6 + indicator_A2_nn_6
   + indicator_A2_ac_6 + indicator_A2_pp_9 + indicator_A2_nn_9
   + indicator_A2_ac_9 + indicator_A2_pp_12 + indicator_A2_nn_12
   + indicator_A2_ac_12 + indicator_A2_pp_15 + indicator_A2_nn_15
   + indicator_A2_ac_15 + 20 one_pin_net_bin_A2 <= 21
 via_used_binary_lower: indicator_A2_pp_3 + indicator_A2_nn_3
   + indicator_A2_ac_3 + indicator_A2_pp_6 + indicator_A2_nn_6
   + indicator_A2_ac_6 + indicator_A2_pp_9 + indicator_A2_nn_9
   + indicator_A2_ac_9 + indicator_A2_pp_12 + indicator_A2_nn_12
   + indicator_A2_ac_12 + indicator_A2_pp_15 + indicator_A2_nn_15
   + indicator_A2_ac_15 + 20 one_pin_net_bin_A2 >= 2
 cond_via_1_1_A2: cond_col1_row1_netA2 - one_pin_net_bin_A2 <= 0
 cond_pinmetal_1_1_A2: - t_A2_c_r[0,1] - t_A2_c_r[1,1] - t_A2_c_r[2,1]
   - t_A2_c_r[3,1] + cond_col1_row1_netA2 <= 0
 pin_is_there1_pinmetal_1_1_A2: - t_A2_c_r[0,1] - t_A2_c_r[1,1]
   - t_A2_c_r[2,1] - t_A2_c_r[3,1] + pin_is_there_1_A2 <= 0
 pin_is_there2_pinmetal_1_1_A2: - 0.25 t_A2_c_r[0,1] - 0.25 t_A2_c_r[1,1]
   - 0.25 t_A2_c_r[2,1] - 0.25 t_A2_c_r[3,1] + pin_is_there_1_A2 >= 0
 cond_upper_1_1_A2: t_net16_c_r[0,1] + t_net16_c_r[1,1] + t_net16_c_r[2,1]
   + t_net16_c_r[3,1] + t_A1_c_r[0,1] + t_A1_c_r[1,1] + t_A1_c_r[2,1]
   + t_A1_c_r[3,1] + t_ZN_c_r[0,1] + t_ZN_c_r[1,1] + t_ZN_c_r[2,1]
   + t_ZN_c_r[3,1] + 20 cond_col1_row1_netA2 <= 20
 cond_lower_1_1_A2: t_net16_c_r[0,1] + t_net16_c_r[1,1] + t_net16_c_r[2,1]
   + t_net16_c_r[3,1] + t_A1_c_r[0,1] + t_A1_c_r[1,1] + t_A1_c_r[2,1]
   + t_A1_c_r[3,1] + t_ZN_c_r[0,1] + t_ZN_c_r[1,1] + t_ZN_c_r[2,1]
   + t_ZN_c_r[3,1] + cond_col1_row1_netA2 - one_pin_net_bin_A2
   - pin_is_there_1_A2 >= -1
 via_used_binary_upper: indicator_ZN_pp_3 + indicator_ZN_nn_3
   + indicator_ZN_ac_3 + indicator_ZN_pp_6 + indicator_ZN_nn_6
   + indicator_ZN_ac_6 + indicator_ZN_pp_9 + indicator_ZN_nn_9
   + indicator_ZN_ac_9 + indicator_ZN_pp_12 + indicator_ZN_nn_12
   + indicator_ZN_ac_12 + indicator_ZN_pp_15 + indicator_ZN_nn_15
   + indicator_ZN_ac_15 + 20 one_pin_net_bin_ZN <= 21
 via_used_binary_lower: indicator_ZN_pp_3 + indicator_ZN_nn_3
   + indicator_ZN_ac_3 + indicator_ZN_pp_6 + indicator_ZN_nn_6
   + indicator_ZN_ac_6 + indicator_ZN_pp_9 + indicator_ZN_nn_9
   + indicator_ZN_ac_9 + indicator_ZN_pp_12 + indicator_ZN_nn_12
   + indicator_ZN_ac_12 + indicator_ZN_pp_15 + indicator_ZN_nn_15
   + indicator_ZN_ac_15 + 20 one_pin_net_bin_ZN >= 2
 cond_via_1_1_ZN: cond_col1_row1_netZN - one_pin_net_bin_ZN <= 0
 cond_pinmetal_1_1_ZN: - t_ZN_c_r[0,1] - t_ZN_c_r[1,1] - t_ZN_c_r[2,1]
   - t_ZN_c_r[3,1] + cond_col1_row1_netZN <= 0
 pin_is_there1_pinmetal_1_1_ZN: - t_ZN_c_r[0,1] - t_ZN_c_r[1,1]
   - t_ZN_c_r[2,1] - t_ZN_c_r[3,1] + pin_is_there_1_ZN <= 0
 pin_is_there2_pinmetal_1_1_ZN: - 0.25 t_ZN_c_r[0,1] - 0.25 t_ZN_c_r[1,1]
   - 0.25 t_ZN_c_r[2,1] - 0.25 t_ZN_c_r[3,1] + pin_is_there_1_ZN >= 0
 cond_upper_1_1_ZN: t_A2_c_r[0,1] + t_A2_c_r[1,1] + t_A2_c_r[2,1]
   + t_A2_c_r[3,1] + t_net16_c_r[0,1] + t_net16_c_r[1,1] + t_net16_c_r[2,1]
   + t_net16_c_r[3,1] + t_A1_c_r[0,1] + t_A1_c_r[1,1] + t_A1_c_r[2,1]
   + t_A1_c_r[3,1] + 20 cond_col1_row1_netZN <= 20
 cond_lower_1_1_ZN: t_A2_c_r[0,1] + t_A2_c_r[1,1] + t_A2_c_r[2,1]
   + t_A2_c_r[3,1] + t_net16_c_r[0,1] + t_net16_c_r[1,1] + t_net16_c_r[2,1]
   + t_net16_c_r[3,1] + t_A1_c_r[0,1] + t_A1_c_r[1,1] + t_A1_c_r[2,1]
   + t_A1_c_r[3,1] + cond_col1_row1_netZN - one_pin_net_bin_ZN
   - pin_is_there_1_ZN >= -1
 via_used_binary_upper: indicator_A1_pp_3 + indicator_A1_nn_3
   + indicator_A1_ac_3 + indicator_A1_pp_6 + indicator_A1_nn_6
   + indicator_A1_ac_6 + indicator_A1_pp_9 + indicator_A1_nn_9
   + indicator_A1_ac_9 + indicator_A1_pp_12 + indicator_A1_nn_12
   + indicator_A1_ac_12 + indicator_A1_pp_15 + indicator_A1_nn_15
   + indicator_A1_ac_15 + 20 one_pin_net_bin_A1 <= 21
 via_used_binary_lower: indicator_A1_pp_3 + indicator_A1_nn_3
   + indicator_A1_ac_3 + indicator_A1_pp_6 + indicator_A1_nn_6
   + indicator_A1_ac_6 + indicator_A1_pp_9 + indicator_A1_nn_9
   + indicator_A1_ac_9 + indicator_A1_pp_12 + indicator_A1_nn_12
   + indicator_A1_ac_12 + indicator_A1_pp_15 + indicator_A1_nn_15
   + indicator_A1_ac_15 + 20 one_pin_net_bin_A1 >= 2
 cond_via_1_0_A1: cond_col1_row0_netA1 - one_pin_net_bin_A1 <= 0
 cond_pinmetal_1_0_A1: - t_A1_c_r[0,0] - t_A1_c_r[1,0] - t_A1_c_r[2,0]
   - t_A1_c_r[3,0] + cond_col1_row0_netA1 <= 0
 pin_is_there1_pinmetal_1_0_A1: - t_A1_c_r[0,0] - t_A1_c_r[1,0]
   - t_A1_c_r[2,0] - t_A1_c_r[3,0] + pin_is_there_0_A1 <= 0
 pin_is_there2_pinmetal_1_0_A1: - 0.25 t_A1_c_r[0,0] - 0.25 t_A1_c_r[1,0]
   - 0.25 t_A1_c_r[2,0] - 0.25 t_A1_c_r[3,0] + pin_is_there_0_A1 >= 0
 cond_upper_1_0_A1: t_A2_c_r[0,0] + t_A2_c_r[1,0] + t_A2_c_r[2,0]
   + t_A2_c_r[3,0] + t_net16_c_r[0,0] + t_net16_c_r[1,0] + t_net16_c_r[2,0]
   + t_net16_c_r[3,0] + t_ZN_c_r[0,0] + t_ZN_c_r[1,0] + t_ZN_c_r[2,0]
   + t_ZN_c_r[3,0] + 20 cond_col1_row0_netA1 <= 20
 cond_lower_1_0_A1: t_A2_c_r[0,0] + t_A2_c_r[1,0] + t_A2_c_r[2,0]
   + t_A2_c_r[3,0] + t_net16_c_r[0,0] + t_net16_c_r[1,0] + t_net16_c_r[2,0]
   + t_net16_c_r[3,0] + t_ZN_c_r[0,0] + t_ZN_c_r[1,0] + t_ZN_c_r[2,0]
   + t_ZN_c_r[3,0] + cond_col1_row0_netA1 - one_pin_net_bin_A1
   - pin_is_there_0_A1 >= -1
 via_used_binary_upper: indicator_A2_pp_3 + indicator_A2_nn_3
   + indicator_A2_ac_3 + indicator_A2_pp_6 + indicator_A2_nn_6
   + indicator_A2_ac_6 + indicator_A2_pp_9 + indicator_A2_nn_9
   + indicator_A2_ac_9 + indicator_A2_pp_12 + indicator_A2_nn_12
   + indicator_A2_ac_12 + indicator_A2_pp_15 + indicator_A2_nn_15
   + indicator_A2_ac_15 + 20 one_pin_net_bin_A2 <= 21
 via_used_binary_lower: indicator_A2_pp_3 + indicator_A2_nn_3
   + indicator_A2_ac_3 + indicator_A2_pp_6 + indicator_A2_nn_6
   + indicator_A2_ac_6 + indicator_A2_pp_9 + indicator_A2_nn_9
   + indicator_A2_ac_9 + indicator_A2_pp_12 + indicator_A2_nn_12
   + indicator_A2_ac_12 + indicator_A2_pp_15 + indicator_A2_nn_15
   + indicator_A2_ac_15 + 20 one_pin_net_bin_A2 >= 2
 cond_via_1_0_A2: cond_col1_row0_netA2 - one_pin_net_bin_A2 <= 0
 cond_pinmetal_1_0_A2: - t_A2_c_r[0,0] - t_A2_c_r[1,0] - t_A2_c_r[2,0]
   - t_A2_c_r[3,0] + cond_col1_row0_netA2 <= 0
 pin_is_there1_pinmetal_1_0_A2: - t_A2_c_r[0,0] - t_A2_c_r[1,0]
   - t_A2_c_r[2,0] - t_A2_c_r[3,0] + pin_is_there_0_A2 <= 0
 pin_is_there2_pinmetal_1_0_A2: - 0.25 t_A2_c_r[0,0] - 0.25 t_A2_c_r[1,0]
   - 0.25 t_A2_c_r[2,0] - 0.25 t_A2_c_r[3,0] + pin_is_there_0_A2 >= 0
 cond_upper_1_0_A2: t_net16_c_r[0,0] + t_net16_c_r[1,0] + t_net16_c_r[2,0]
   + t_net16_c_r[3,0] + t_A1_c_r[0,0] + t_A1_c_r[1,0] + t_A1_c_r[2,0]
   + t_A1_c_r[3,0] + t_ZN_c_r[0,0] + t_ZN_c_r[1,0] + t_ZN_c_r[2,0]
   + t_ZN_c_r[3,0] + 20 cond_col1_row0_netA2 <= 20
 cond_lower_1_0_A2: t_net16_c_r[0,0] + t_net16_c_r[1,0] + t_net16_c_r[2,0]
   + t_net16_c_r[3,0] + t_A1_c_r[0,0] + t_A1_c_r[1,0] + t_A1_c_r[2,0]
   + t_A1_c_r[3,0] + t_ZN_c_r[0,0] + t_ZN_c_r[1,0] + t_ZN_c_r[2,0]
   + t_ZN_c_r[3,0] + cond_col1_row0_netA2 - one_pin_net_bin_A2
   - pin_is_there_0_A2 >= -1
 via_used_binary_upper: indicator_ZN_pp_3 + indicator_ZN_nn_3
   + indicator_ZN_ac_3 + indicator_ZN_pp_6 + indicator_ZN_nn_6
   + indicator_ZN_ac_6 + indicator_ZN_pp_9 + indicator_ZN_nn_9
   + indicator_ZN_ac_9 + indicator_ZN_pp_12 + indicator_ZN_nn_12
   + indicator_ZN_ac_12 + indicator_ZN_pp_15 + indicator_ZN_nn_15
   + indicator_ZN_ac_15 + 20 one_pin_net_bin_ZN <= 21
 via_used_binary_lower: indicator_ZN_pp_3 + indicator_ZN_nn_3
   + indicator_ZN_ac_3 + indicator_ZN_pp_6 + indicator_ZN_nn_6
   + indicator_ZN_ac_6 + indicator_ZN_pp_9 + indicator_ZN_nn_9
   + indicator_ZN_ac_9 + indicator_ZN_pp_12 + indicator_ZN_nn_12
   + indicator_ZN_ac_12 + indicator_ZN_pp_15 + indicator_ZN_nn_15
   + indicator_ZN_ac_15 + 20 one_pin_net_bin_ZN >= 2
 cond_via_1_0_ZN: cond_col1_row0_netZN - one_pin_net_bin_ZN <= 0
 cond_pinmetal_1_0_ZN: - t_ZN_c_r[0,0] - t_ZN_c_r[1,0] - t_ZN_c_r[2,0]
   - t_ZN_c_r[3,0] + cond_col1_row0_netZN <= 0
 pin_is_there1_pinmetal_1_0_ZN: - t_ZN_c_r[0,0] - t_ZN_c_r[1,0]
   - t_ZN_c_r[2,0] - t_ZN_c_r[3,0] + pin_is_there_0_ZN <= 0
 pin_is_there2_pinmetal_1_0_ZN: - 0.25 t_ZN_c_r[0,0] - 0.25 t_ZN_c_r[1,0]
   - 0.25 t_ZN_c_r[2,0] - 0.25 t_ZN_c_r[3,0] + pin_is_there_0_ZN >= 0
 cond_upper_1_0_ZN: t_A2_c_r[0,0] + t_A2_c_r[1,0] + t_A2_c_r[2,0]
   + t_A2_c_r[3,0] + t_net16_c_r[0,0] + t_net16_c_r[1,0] + t_net16_c_r[2,0]
   + t_net16_c_r[3,0] + t_A1_c_r[0,0] + t_A1_c_r[1,0] + t_A1_c_r[2,0]
   + t_A1_c_r[3,0] + 20 cond_col1_row0_netZN <= 20
 cond_lower_1_0_ZN: t_A2_c_r[0,0] + t_A2_c_r[1,0] + t_A2_c_r[2,0]
   + t_A2_c_r[3,0] + t_net16_c_r[0,0] + t_net16_c_r[1,0] + t_net16_c_r[2,0]
   + t_net16_c_r[3,0] + t_A1_c_r[0,0] + t_A1_c_r[1,0] + t_A1_c_r[2,0]
   + t_A1_c_r[3,0] + cond_col1_row0_netZN - one_pin_net_bin_ZN
   - pin_is_there_0_ZN >= -1
 reward_make_for_1: p_e_r_1 - cond_col1_row3_netA1 - cond_col1_row3_netA2
   - cond_col1_row3_netZN - cond_col1_row2_netA1 - cond_col1_row2_netA2
   - cond_col1_row2_netZN - cond_col1_row1_netA1 - cond_col1_row1_netA2
   - cond_col1_row1_netZN - cond_col1_row0_netA1 - cond_col1_row0_netA2
   - cond_col1_row0_netZN = 0
 via_used_binary_upper: indicator_A1_pp_3 + indicator_A1_nn_3
   + indicator_A1_ac_3 + indicator_A1_pp_6 + indicator_A1_nn_6
   + indicator_A1_ac_6 + indicator_A1_pp_9 + indicator_A1_nn_9
   + indicator_A1_ac_9 + indicator_A1_pp_12 + indicator_A1_nn_12
   + indicator_A1_ac_12 + indicator_A1_pp_15 + indicator_A1_nn_15
   + indicator_A1_ac_15 + 20 one_pin_net_bin_A1 <= 21
 via_used_binary_lower: indicator_A1_pp_3 + indicator_A1_nn_3
   + indicator_A1_ac_3 + indicator_A1_pp_6 + indicator_A1_nn_6
   + indicator_A1_ac_6 + indicator_A1_pp_9 + indicator_A1_nn_9
   + indicator_A1_ac_9 + indicator_A1_pp_12 + indicator_A1_nn_12
   + indicator_A1_ac_12 + indicator_A1_pp_15 + indicator_A1_nn_15
   + indicator_A1_ac_15 + 20 one_pin_net_bin_A1 >= 2
 cond_via_3_3_A1: cond_col3_row3_netA1 - one_pin_net_bin_A1 <= 0
 cond_pinmetal_3_3_A1: - t_A1_c_r[1,3] - t_A1_c_r[2,3] - t_A1_c_r[3,3]
   - t_A1_c_r[4,3] + cond_col3_row3_netA1 <= 0
 pin_is_there1_pinmetal_3_3_A1: - t_A1_c_r[1,3] - t_A1_c_r[2,3]
   - t_A1_c_r[3,3] - t_A1_c_r[4,3] + pin_is_there_3_A1 <= 0
 pin_is_there2_pinmetal_3_3_A1: - 0.25 t_A1_c_r[1,3] - 0.25 t_A1_c_r[2,3]
   - 0.25 t_A1_c_r[3,3] - 0.25 t_A1_c_r[4,3] + pin_is_there_3_A1 >= 0
 cond_upper_3_3_A1: t_A2_c_r[1,3] + t_A2_c_r[2,3] + t_A2_c_r[3,3]
   + t_A2_c_r[4,3] + t_net16_c_r[1,3] + t_net16_c_r[2,3] + t_net16_c_r[3,3]
   + t_net16_c_r[4,3] + t_ZN_c_r[1,3] + t_ZN_c_r[2,3] + t_ZN_c_r[3,3]
   + t_ZN_c_r[4,3] + 20 cond_col3_row3_netA1 <= 20
 cond_lower_3_3_A1: t_A2_c_r[1,3] + t_A2_c_r[2,3] + t_A2_c_r[3,3]
   + t_A2_c_r[4,3] + t_net16_c_r[1,3] + t_net16_c_r[2,3] + t_net16_c_r[3,3]
   + t_net16_c_r[4,3] + t_ZN_c_r[1,3] + t_ZN_c_r[2,3] + t_ZN_c_r[3,3]
   + t_ZN_c_r[4,3] + cond_col3_row3_netA1 - one_pin_net_bin_A1
   - pin_is_there_3_A1 >= -1
 via_used_binary_upper: indicator_A2_pp_3 + indicator_A2_nn_3
   + indicator_A2_ac_3 + indicator_A2_pp_6 + indicator_A2_nn_6
   + indicator_A2_ac_6 + indicator_A2_pp_9 + indicator_A2_nn_9
   + indicator_A2_ac_9 + indicator_A2_pp_12 + indicator_A2_nn_12
   + indicator_A2_ac_12 + indicator_A2_pp_15 + indicator_A2_nn_15
   + indicator_A2_ac_15 + 20 one_pin_net_bin_A2 <= 21
 via_used_binary_lower: indicator_A2_pp_3 + indicator_A2_nn_3
   + indicator_A2_ac_3 + indicator_A2_pp_6 + indicator_A2_nn_6
   + indicator_A2_ac_6 + indicator_A2_pp_9 + indicator_A2_nn_9
   + indicator_A2_ac_9 + indicator_A2_pp_12 + indicator_A2_nn_12
   + indicator_A2_ac_12 + indicator_A2_pp_15 + indicator_A2_nn_15
   + indicator_A2_ac_15 + 20 one_pin_net_bin_A2 >= 2
 cond_via_3_3_A2: cond_col3_row3_netA2 - one_pin_net_bin_A2 <= 0
 cond_pinmetal_3_3_A2: - t_A2_c_r[1,3] - t_A2_c_r[2,3] - t_A2_c_r[3,3]
   - t_A2_c_r[4,3] + cond_col3_row3_netA2 <= 0
 pin_is_there1_pinmetal_3_3_A2: - t_A2_c_r[1,3] - t_A2_c_r[2,3]
   - t_A2_c_r[3,3] - t_A2_c_r[4,3] + pin_is_there_3_A2 <= 0
 pin_is_there2_pinmetal_3_3_A2: - 0.25 t_A2_c_r[1,3] - 0.25 t_A2_c_r[2,3]
   - 0.25 t_A2_c_r[3,3] - 0.25 t_A2_c_r[4,3] + pin_is_there_3_A2 >= 0
 cond_upper_3_3_A2: t_net16_c_r[1,3] + t_net16_c_r[2,3] + t_net16_c_r[3,3]
   + t_net16_c_r[4,3] + t_A1_c_r[1,3] + t_A1_c_r[2,3] + t_A1_c_r[3,3]
   + t_A1_c_r[4,3] + t_ZN_c_r[1,3] + t_ZN_c_r[2,3] + t_ZN_c_r[3,3]
   + t_ZN_c_r[4,3] + 20 cond_col3_row3_netA2 <= 20
 cond_lower_3_3_A2: t_net16_c_r[1,3] + t_net16_c_r[2,3] + t_net16_c_r[3,3]
   + t_net16_c_r[4,3] + t_A1_c_r[1,3] + t_A1_c_r[2,3] + t_A1_c_r[3,3]
   + t_A1_c_r[4,3] + t_ZN_c_r[1,3] + t_ZN_c_r[2,3] + t_ZN_c_r[3,3]
   + t_ZN_c_r[4,3] + cond_col3_row3_netA2 - one_pin_net_bin_A2
   - pin_is_there_3_A2 >= -1
 via_used_binary_upper: indicator_ZN_pp_3 + indicator_ZN_nn_3
   + indicator_ZN_ac_3 + indicator_ZN_pp_6 + indicator_ZN_nn_6
   + indicator_ZN_ac_6 + indicator_ZN_pp_9 + indicator_ZN_nn_9
   + indicator_ZN_ac_9 + indicator_ZN_pp_12 + indicator_ZN_nn_12
   + indicator_ZN_ac_12 + indicator_ZN_pp_15 + indicator_ZN_nn_15
   + indicator_ZN_ac_15 + 20 one_pin_net_bin_ZN <= 21
 via_used_binary_lower: indicator_ZN_pp_3 + indicator_ZN_nn_3
   + indicator_ZN_ac_3 + indicator_ZN_pp_6 + indicator_ZN_nn_6
   + indicator_ZN_ac_6 + indicator_ZN_pp_9 + indicator_ZN_nn_9
   + indicator_ZN_ac_9 + indicator_ZN_pp_12 + indicator_ZN_nn_12
   + indicator_ZN_ac_12 + indicator_ZN_pp_15 + indicator_ZN_nn_15
   + indicator_ZN_ac_15 + 20 one_pin_net_bin_ZN >= 2
 cond_via_3_3_ZN: cond_col3_row3_netZN - one_pin_net_bin_ZN <= 0
 cond_pinmetal_3_3_ZN: - t_ZN_c_r[1,3] - t_ZN_c_r[2,3] - t_ZN_c_r[3,3]
   - t_ZN_c_r[4,3] + cond_col3_row3_netZN <= 0
 pin_is_there1_pinmetal_3_3_ZN: - t_ZN_c_r[1,3] - t_ZN_c_r[2,3]
   - t_ZN_c_r[3,3] - t_ZN_c_r[4,3] + pin_is_there_3_ZN <= 0
 pin_is_there2_pinmetal_3_3_ZN: - 0.25 t_ZN_c_r[1,3] - 0.25 t_ZN_c_r[2,3]
   - 0.25 t_ZN_c_r[3,3] - 0.25 t_ZN_c_r[4,3] + pin_is_there_3_ZN >= 0
 cond_upper_3_3_ZN: t_A2_c_r[1,3] + t_A2_c_r[2,3] + t_A2_c_r[3,3]
   + t_A2_c_r[4,3] + t_net16_c_r[1,3] + t_net16_c_r[2,3] + t_net16_c_r[3,3]
   + t_net16_c_r[4,3] + t_A1_c_r[1,3] + t_A1_c_r[2,3] + t_A1_c_r[3,3]
   + t_A1_c_r[4,3] + 20 cond_col3_row3_netZN <= 20
 cond_lower_3_3_ZN: t_A2_c_r[1,3] + t_A2_c_r[2,3] + t_A2_c_r[3,3]
   + t_A2_c_r[4,3] + t_net16_c_r[1,3] + t_net16_c_r[2,3] + t_net16_c_r[3,3]
   + t_net16_c_r[4,3] + t_A1_c_r[1,3] + t_A1_c_r[2,3] + t_A1_c_r[3,3]
   + t_A1_c_r[4,3] + cond_col3_row3_netZN - one_pin_net_bin_ZN
   - pin_is_there_3_ZN >= -1
 via_used_binary_upper: indicator_A1_pp_3 + indicator_A1_nn_3
   + indicator_A1_ac_3 + indicator_A1_pp_6 + indicator_A1_nn_6
   + indicator_A1_ac_6 + indicator_A1_pp_9 + indicator_A1_nn_9
   + indicator_A1_ac_9 + indicator_A1_pp_12 + indicator_A1_nn_12
   + indicator_A1_ac_12 + indicator_A1_pp_15 + indicator_A1_nn_15
   + indicator_A1_ac_15 + 20 one_pin_net_bin_A1 <= 21
 via_used_binary_lower: indicator_A1_pp_3 + indicator_A1_nn_3
   + indicator_A1_ac_3 + indicator_A1_pp_6 + indicator_A1_nn_6
   + indicator_A1_ac_6 + indicator_A1_pp_9 + indicator_A1_nn_9
   + indicator_A1_ac_9 + indicator_A1_pp_12 + indicator_A1_nn_12
   + indicator_A1_ac_12 + indicator_A1_pp_15 + indicator_A1_nn_15
   + indicator_A1_ac_15 + 20 one_pin_net_bin_A1 >= 2
 cond_via_3_2_A1: cond_col3_row2_netA1 - one_pin_net_bin_A1 <= 0
 cond_pinmetal_3_2_A1: - t_A1_c_r[1,2] - t_A1_c_r[2,2] - t_A1_c_r[3,2]
   - t_A1_c_r[4,2] + cond_col3_row2_netA1 <= 0
 pin_is_there1_pinmetal_3_2_A1: - t_A1_c_r[1,2] - t_A1_c_r[2,2]
   - t_A1_c_r[3,2] - t_A1_c_r[4,2] + pin_is_there_2_A1 <= 0
 pin_is_there2_pinmetal_3_2_A1: - 0.25 t_A1_c_r[1,2] - 0.25 t_A1_c_r[2,2]
   - 0.25 t_A1_c_r[3,2] - 0.25 t_A1_c_r[4,2] + pin_is_there_2_A1 >= 0
 cond_upper_3_2_A1: t_A2_c_r[1,2] + t_A2_c_r[2,2] + t_A2_c_r[3,2]
   + t_A2_c_r[4,2] + t_net16_c_r[1,2] + t_net16_c_r[2,2] + t_net16_c_r[3,2]
   + t_net16_c_r[4,2] + t_ZN_c_r[1,2] + t_ZN_c_r[2,2] + t_ZN_c_r[3,2]
   + t_ZN_c_r[4,2] + 20 cond_col3_row2_netA1 <= 20
 cond_lower_3_2_A1: t_A2_c_r[1,2] + t_A2_c_r[2,2] + t_A2_c_r[3,2]
   + t_A2_c_r[4,2] + t_net16_c_r[1,2] + t_net16_c_r[2,2] + t_net16_c_r[3,2]
   + t_net16_c_r[4,2] + t_ZN_c_r[1,2] + t_ZN_c_r[2,2] + t_ZN_c_r[3,2]
   + t_ZN_c_r[4,2] + cond_col3_row2_netA1 - one_pin_net_bin_A1
   - pin_is_there_2_A1 >= -1
 via_used_binary_upper: indicator_A2_pp_3 + indicator_A2_nn_3
   + indicator_A2_ac_3 + indicator_A2_pp_6 + indicator_A2_nn_6
   + indicator_A2_ac_6 + indicator_A2_pp_9 + indicator_A2_nn_9
   + indicator_A2_ac_9 + indicator_A2_pp_12 + indicator_A2_nn_12
   + indicator_A2_ac_12 + indicator_A2_pp_15 + indicator_A2_nn_15
   + indicator_A2_ac_15 + 20 one_pin_net_bin_A2 <= 21
 via_used_binary_lower: indicator_A2_pp_3 + indicator_A2_nn_3
   + indicator_A2_ac_3 + indicator_A2_pp_6 + indicator_A2_nn_6
   + indicator_A2_ac_6 + indicator_A2_pp_9 + indicator_A2_nn_9
   + indicator_A2_ac_9 + indicator_A2_pp_12 + indicator_A2_nn_12
   + indicator_A2_ac_12 + indicator_A2_pp_15 + indicator_A2_nn_15
   + indicator_A2_ac_15 + 20 one_pin_net_bin_A2 >= 2
 cond_via_3_2_A2: cond_col3_row2_netA2 - one_pin_net_bin_A2 <= 0
 cond_pinmetal_3_2_A2: - t_A2_c_r[1,2] - t_A2_c_r[2,2] - t_A2_c_r[3,2]
   - t_A2_c_r[4,2] + cond_col3_row2_netA2 <= 0
 pin_is_there1_pinmetal_3_2_A2: - t_A2_c_r[1,2] - t_A2_c_r[2,2]
   - t_A2_c_r[3,2] - t_A2_c_r[4,2] + pin_is_there_2_A2 <= 0
 pin_is_there2_pinmetal_3_2_A2: - 0.25 t_A2_c_r[1,2] - 0.25 t_A2_c_r[2,2]
   - 0.25 t_A2_c_r[3,2] - 0.25 t_A2_c_r[4,2] + pin_is_there_2_A2 >= 0
 cond_upper_3_2_A2: t_net16_c_r[1,2] + t_net16_c_r[2,2] + t_net16_c_r[3,2]
   + t_net16_c_r[4,2] + t_A1_c_r[1,2] + t_A1_c_r[2,2] + t_A1_c_r[3,2]
   + t_A1_c_r[4,2] + t_ZN_c_r[1,2] + t_ZN_c_r[2,2] + t_ZN_c_r[3,2]
   + t_ZN_c_r[4,2] + 20 cond_col3_row2_netA2 <= 20
 cond_lower_3_2_A2: t_net16_c_r[1,2] + t_net16_c_r[2,2] + t_net16_c_r[3,2]
   + t_net16_c_r[4,2] + t_A1_c_r[1,2] + t_A1_c_r[2,2] + t_A1_c_r[3,2]
   + t_A1_c_r[4,2] + t_ZN_c_r[1,2] + t_ZN_c_r[2,2] + t_ZN_c_r[3,2]
   + t_ZN_c_r[4,2] + cond_col3_row2_netA2 - one_pin_net_bin_A2
   - pin_is_there_2_A2 >= -1
 via_used_binary_upper: indicator_ZN_pp_3 + indicator_ZN_nn_3
   + indicator_ZN_ac_3 + indicator_ZN_pp_6 + indicator_ZN_nn_6
   + indicator_ZN_ac_6 + indicator_ZN_pp_9 + indicator_ZN_nn_9
   + indicator_ZN_ac_9 + indicator_ZN_pp_12 + indicator_ZN_nn_12
   + indicator_ZN_ac_12 + indicator_ZN_pp_15 + indicator_ZN_nn_15
   + indicator_ZN_ac_15 + 20 one_pin_net_bin_ZN <= 21
 via_used_binary_lower: indicator_ZN_pp_3 + indicator_ZN_nn_3
   + indicator_ZN_ac_3 + indicator_ZN_pp_6 + indicator_ZN_nn_6
   + indicator_ZN_ac_6 + indicator_ZN_pp_9 + indicator_ZN_nn_9
   + indicator_ZN_ac_9 + indicator_ZN_pp_12 + indicator_ZN_nn_12
   + indicator_ZN_ac_12 + indicator_ZN_pp_15 + indicator_ZN_nn_15
   + indicator_ZN_ac_15 + 20 one_pin_net_bin_ZN >= 2
 cond_via_3_2_ZN: cond_col3_row2_netZN - one_pin_net_bin_ZN <= 0
 cond_pinmetal_3_2_ZN: - t_ZN_c_r[1,2] - t_ZN_c_r[2,2] - t_ZN_c_r[3,2]
   - t_ZN_c_r[4,2] + cond_col3_row2_netZN <= 0
 pin_is_there1_pinmetal_3_2_ZN: - t_ZN_c_r[1,2] - t_ZN_c_r[2,2]
   - t_ZN_c_r[3,2] - t_ZN_c_r[4,2] + pin_is_there_2_ZN <= 0
 pin_is_there2_pinmetal_3_2_ZN: - 0.25 t_ZN_c_r[1,2] - 0.25 t_ZN_c_r[2,2]
   - 0.25 t_ZN_c_r[3,2] - 0.25 t_ZN_c_r[4,2] + pin_is_there_2_ZN >= 0
 cond_upper_3_2_ZN: t_A2_c_r[1,2] + t_A2_c_r[2,2] + t_A2_c_r[3,2]
   + t_A2_c_r[4,2] + t_net16_c_r[1,2] + t_net16_c_r[2,2] + t_net16_c_r[3,2]
   + t_net16_c_r[4,2] + t_A1_c_r[1,2] + t_A1_c_r[2,2] + t_A1_c_r[3,2]
   + t_A1_c_r[4,2] + 20 cond_col3_row2_netZN <= 20
 cond_lower_3_2_ZN: t_A2_c_r[1,2] + t_A2_c_r[2,2] + t_A2_c_r[3,2]
   + t_A2_c_r[4,2] + t_net16_c_r[1,2] + t_net16_c_r[2,2] + t_net16_c_r[3,2]
   + t_net16_c_r[4,2] + t_A1_c_r[1,2] + t_A1_c_r[2,2] + t_A1_c_r[3,2]
   + t_A1_c_r[4,2] + cond_col3_row2_netZN - one_pin_net_bin_ZN
   - pin_is_there_2_ZN >= -1
 via_used_binary_upper: indicator_A1_pp_3 + indicator_A1_nn_3
   + indicator_A1_ac_3 + indicator_A1_pp_6 + indicator_A1_nn_6
   + indicator_A1_ac_6 + indicator_A1_pp_9 + indicator_A1_nn_9
   + indicator_A1_ac_9 + indicator_A1_pp_12 + indicator_A1_nn_12
   + indicator_A1_ac_12 + indicator_A1_pp_15 + indicator_A1_nn_15
   + indicator_A1_ac_15 + 20 one_pin_net_bin_A1 <= 21
 via_used_binary_lower: indicator_A1_pp_3 + indicator_A1_nn_3
   + indicator_A1_ac_3 + indicator_A1_pp_6 + indicator_A1_nn_6
   + indicator_A1_ac_6 + indicator_A1_pp_9 + indicator_A1_nn_9
   + indicator_A1_ac_9 + indicator_A1_pp_12 + indicator_A1_nn_12
   + indicator_A1_ac_12 + indicator_A1_pp_15 + indicator_A1_nn_15
   + indicator_A1_ac_15 + 20 one_pin_net_bin_A1 >= 2
 cond_via_3_1_A1: cond_col3_row1_netA1 - one_pin_net_bin_A1 <= 0
 cond_pinmetal_3_1_A1: - t_A1_c_r[1,1] - t_A1_c_r[2,1] - t_A1_c_r[3,1]
   - t_A1_c_r[4,1] + cond_col3_row1_netA1 <= 0
 pin_is_there1_pinmetal_3_1_A1: - t_A1_c_r[1,1] - t_A1_c_r[2,1]
   - t_A1_c_r[3,1] - t_A1_c_r[4,1] + pin_is_there_1_A1 <= 0
 pin_is_there2_pinmetal_3_1_A1: - 0.25 t_A1_c_r[1,1] - 0.25 t_A1_c_r[2,1]
   - 0.25 t_A1_c_r[3,1] - 0.25 t_A1_c_r[4,1] + pin_is_there_1_A1 >= 0
 cond_upper_3_1_A1: t_A2_c_r[1,1] + t_A2_c_r[2,1] + t_A2_c_r[3,1]
   + t_A2_c_r[4,1] + t_net16_c_r[1,1] + t_net16_c_r[2,1] + t_net16_c_r[3,1]
   + t_net16_c_r[4,1] + t_ZN_c_r[1,1] + t_ZN_c_r[2,1] + t_ZN_c_r[3,1]
   + t_ZN_c_r[4,1] + 20 cond_col3_row1_netA1 <= 20
 cond_lower_3_1_A1: t_A2_c_r[1,1] + t_A2_c_r[2,1] + t_A2_c_r[3,1]
   + t_A2_c_r[4,1] + t_net16_c_r[1,1] + t_net16_c_r[2,1] + t_net16_c_r[3,1]
   + t_net16_c_r[4,1] + t_ZN_c_r[1,1] + t_ZN_c_r[2,1] + t_ZN_c_r[3,1]
   + t_ZN_c_r[4,1] + cond_col3_row1_netA1 - one_pin_net_bin_A1
   - pin_is_there_1_A1 >= -1
 via_used_binary_upper: indicator_A2_pp_3 + indicator_A2_nn_3
   + indicator_A2_ac_3 + indicator_A2_pp_6 + indicator_A2_nn_6
   + indicator_A2_ac_6 + indicator_A2_pp_9 + indicator_A2_nn_9
   + indicator_A2_ac_9 + indicator_A2_pp_12 + indicator_A2_nn_12
   + indicator_A2_ac_12 + indicator_A2_pp_15 + indicator_A2_nn_15
   + indicator_A2_ac_15 + 20 one_pin_net_bin_A2 <= 21
 via_used_binary_lower: indicator_A2_pp_3 + indicator_A2_nn_3
   + indicator_A2_ac_3 + indicator_A2_pp_6 + indicator_A2_nn_6
   + indicator_A2_ac_6 + indicator_A2_pp_9 + indicator_A2_nn_9
   + indicator_A2_ac_9 + indicator_A2_pp_12 + indicator_A2_nn_12
   + indicator_A2_ac_12 + indicator_A2_pp_15 + indicator_A2_nn_15
   + indicator_A2_ac_15 + 20 one_pin_net_bin_A2 >= 2
 cond_via_3_1_A2: cond_col3_row1_netA2 - one_pin_net_bin_A2 <= 0
 cond_pinmetal_3_1_A2: - t_A2_c_r[1,1] - t_A2_c_r[2,1] - t_A2_c_r[3,1]
   - t_A2_c_r[4,1] + cond_col3_row1_netA2 <= 0
 pin_is_there1_pinmetal_3_1_A2: - t_A2_c_r[1,1] - t_A2_c_r[2,1]
   - t_A2_c_r[3,1] - t_A2_c_r[4,1] + pin_is_there_1_A2 <= 0
 pin_is_there2_pinmetal_3_1_A2: - 0.25 t_A2_c_r[1,1] - 0.25 t_A2_c_r[2,1]
   - 0.25 t_A2_c_r[3,1] - 0.25 t_A2_c_r[4,1] + pin_is_there_1_A2 >= 0
 cond_upper_3_1_A2: t_net16_c_r[1,1] + t_net16_c_r[2,1] + t_net16_c_r[3,1]
   + t_net16_c_r[4,1] + t_A1_c_r[1,1] + t_A1_c_r[2,1] + t_A1_c_r[3,1]
   + t_A1_c_r[4,1] + t_ZN_c_r[1,1] + t_ZN_c_r[2,1] + t_ZN_c_r[3,1]
   + t_ZN_c_r[4,1] + 20 cond_col3_row1_netA2 <= 20
 cond_lower_3_1_A2: t_net16_c_r[1,1] + t_net16_c_r[2,1] + t_net16_c_r[3,1]
   + t_net16_c_r[4,1] + t_A1_c_r[1,1] + t_A1_c_r[2,1] + t_A1_c_r[3,1]
   + t_A1_c_r[4,1] + t_ZN_c_r[1,1] + t_ZN_c_r[2,1] + t_ZN_c_r[3,1]
   + t_ZN_c_r[4,1] + cond_col3_row1_netA2 - one_pin_net_bin_A2
   - pin_is_there_1_A2 >= -1
 via_used_binary_upper: indicator_ZN_pp_3 + indicator_ZN_nn_3
   + indicator_ZN_ac_3 + indicator_ZN_pp_6 + indicator_ZN_nn_6
   + indicator_ZN_ac_6 + indicator_ZN_pp_9 + indicator_ZN_nn_9
   + indicator_ZN_ac_9 + indicator_ZN_pp_12 + indicator_ZN_nn_12
   + indicator_ZN_ac_12 + indicator_ZN_pp_15 + indicator_ZN_nn_15
   + indicator_ZN_ac_15 + 20 one_pin_net_bin_ZN <= 21
 via_used_binary_lower: indicator_ZN_pp_3 + indicator_ZN_nn_3
   + indicator_ZN_ac_3 + indicator_ZN_pp_6 + indicator_ZN_nn_6
   + indicator_ZN_ac_6 + indicator_ZN_pp_9 + indicator_ZN_nn_9
   + indicator_ZN_ac_9 + indicator_ZN_pp_12 + indicator_ZN_nn_12
   + indicator_ZN_ac_12 + indicator_ZN_pp_15 + indicator_ZN_nn_15
   + indicator_ZN_ac_15 + 20 one_pin_net_bin_ZN >= 2
 cond_via_3_1_ZN: cond_col3_row1_netZN - one_pin_net_bin_ZN <= 0
 cond_pinmetal_3_1_ZN: - t_ZN_c_r[1,1] - t_ZN_c_r[2,1] - t_ZN_c_r[3,1]
   - t_ZN_c_r[4,1] + cond_col3_row1_netZN <= 0
 pin_is_there1_pinmetal_3_1_ZN: - t_ZN_c_r[1,1] - t_ZN_c_r[2,1]
   - t_ZN_c_r[3,1] - t_ZN_c_r[4,1] + pin_is_there_1_ZN <= 0
 pin_is_there2_pinmetal_3_1_ZN: - 0.25 t_ZN_c_r[1,1] - 0.25 t_ZN_c_r[2,1]
   - 0.25 t_ZN_c_r[3,1] - 0.25 t_ZN_c_r[4,1] + pin_is_there_1_ZN >= 0
 cond_upper_3_1_ZN: t_A2_c_r[1,1] + t_A2_c_r[2,1] + t_A2_c_r[3,1]
   + t_A2_c_r[4,1] + t_net16_c_r[1,1] + t_net16_c_r[2,1] + t_net16_c_r[3,1]
   + t_net16_c_r[4,1] + t_A1_c_r[1,1] + t_A1_c_r[2,1] + t_A1_c_r[3,1]
   + t_A1_c_r[4,1] + 20 cond_col3_row1_netZN <= 20
 cond_lower_3_1_ZN: t_A2_c_r[1,1] + t_A2_c_r[2,1] + t_A2_c_r[3,1]
   + t_A2_c_r[4,1] + t_net16_c_r[1,1] + t_net16_c_r[2,1] + t_net16_c_r[3,1]
   + t_net16_c_r[4,1] + t_A1_c_r[1,1] + t_A1_c_r[2,1] + t_A1_c_r[3,1]
   + t_A1_c_r[4,1] + cond_col3_row1_netZN - one_pin_net_bin_ZN
   - pin_is_there_1_ZN >= -1
 via_used_binary_upper: indicator_A1_pp_3 + indicator_A1_nn_3
   + indicator_A1_ac_3 + indicator_A1_pp_6 + indicator_A1_nn_6
   + indicator_A1_ac_6 + indicator_A1_pp_9 + indicator_A1_nn_9
   + indicator_A1_ac_9 + indicator_A1_pp_12 + indicator_A1_nn_12
   + indicator_A1_ac_12 + indicator_A1_pp_15 + indicator_A1_nn_15
   + indicator_A1_ac_15 + 20 one_pin_net_bin_A1 <= 21
 via_used_binary_lower: indicator_A1_pp_3 + indicator_A1_nn_3
   + indicator_A1_ac_3 + indicator_A1_pp_6 + indicator_A1_nn_6
   + indicator_A1_ac_6 + indicator_A1_pp_9 + indicator_A1_nn_9
   + indicator_A1_ac_9 + indicator_A1_pp_12 + indicator_A1_nn_12
   + indicator_A1_ac_12 + indicator_A1_pp_15 + indicator_A1_nn_15
   + indicator_A1_ac_15 + 20 one_pin_net_bin_A1 >= 2
 cond_via_3_0_A1: cond_col3_row0_netA1 - one_pin_net_bin_A1 <= 0
 cond_pinmetal_3_0_A1: - t_A1_c_r[1,0] - t_A1_c_r[2,0] - t_A1_c_r[3,0]
   - t_A1_c_r[4,0] + cond_col3_row0_netA1 <= 0
 pin_is_there1_pinmetal_3_0_A1: - t_A1_c_r[1,0] - t_A1_c_r[2,0]
   - t_A1_c_r[3,0] - t_A1_c_r[4,0] + pin_is_there_0_A1 <= 0
 pin_is_there2_pinmetal_3_0_A1: - 0.25 t_A1_c_r[1,0] - 0.25 t_A1_c_r[2,0]
   - 0.25 t_A1_c_r[3,0] - 0.25 t_A1_c_r[4,0] + pin_is_there_0_A1 >= 0
 cond_upper_3_0_A1: t_A2_c_r[1,0] + t_A2_c_r[2,0] + t_A2_c_r[3,0]
   + t_A2_c_r[4,0] + t_net16_c_r[1,0] + t_net16_c_r[2,0] + t_net16_c_r[3,0]
   + t_net16_c_r[4,0] + t_ZN_c_r[1,0] + t_ZN_c_r[2,0] + t_ZN_c_r[3,0]
   + t_ZN_c_r[4,0] + 20 cond_col3_row0_netA1 <= 20
 cond_lower_3_0_A1: t_A2_c_r[1,0] + t_A2_c_r[2,0] + t_A2_c_r[3,0]
   + t_A2_c_r[4,0] + t_net16_c_r[1,0] + t_net16_c_r[2,0] + t_net16_c_r[3,0]
   + t_net16_c_r[4,0] + t_ZN_c_r[1,0] + t_ZN_c_r[2,0] + t_ZN_c_r[3,0]
   + t_ZN_c_r[4,0] + cond_col3_row0_netA1 - one_pin_net_bin_A1
   - pin_is_there_0_A1 >= -1
 via_used_binary_upper: indicator_A2_pp_3 + indicator_A2_nn_3
   + indicator_A2_ac_3 + indicator_A2_pp_6 + indicator_A2_nn_6
   + indicator_A2_ac_6 + indicator_A2_pp_9 + indicator_A2_nn_9
   + indicator_A2_ac_9 + indicator_A2_pp_12 + indicator_A2_nn_12
   + indicator_A2_ac_12 + indicator_A2_pp_15 + indicator_A2_nn_15
   + indicator_A2_ac_15 + 20 one_pin_net_bin_A2 <= 21
 via_used_binary_lower: indicator_A2_pp_3 + indicator_A2_nn_3
   + indicator_A2_ac_3 + indicator_A2_pp_6 + indicator_A2_nn_6
   + indicator_A2_ac_6 + indicator_A2_pp_9 + indicator_A2_nn_9
   + indicator_A2_ac_9 + indicator_A2_pp_12 + indicator_A2_nn_12
   + indicator_A2_ac_12 + indicator_A2_pp_15 + indicator_A2_nn_15
   + indicator_A2_ac_15 + 20 one_pin_net_bin_A2 >= 2
 cond_via_3_0_A2: cond_col3_row0_netA2 - one_pin_net_bin_A2 <= 0
 cond_pinmetal_3_0_A2: - t_A2_c_r[1,0] - t_A2_c_r[2,0] - t_A2_c_r[3,0]
   - t_A2_c_r[4,0] + cond_col3_row0_netA2 <= 0
 pin_is_there1_pinmetal_3_0_A2: - t_A2_c_r[1,0] - t_A2_c_r[2,0]
   - t_A2_c_r[3,0] - t_A2_c_r[4,0] + pin_is_there_0_A2 <= 0
 pin_is_there2_pinmetal_3_0_A2: - 0.25 t_A2_c_r[1,0] - 0.25 t_A2_c_r[2,0]
   - 0.25 t_A2_c_r[3,0] - 0.25 t_A2_c_r[4,0] + pin_is_there_0_A2 >= 0
 cond_upper_3_0_A2: t_net16_c_r[1,0] + t_net16_c_r[2,0] + t_net16_c_r[3,0]
   + t_net16_c_r[4,0] + t_A1_c_r[1,0] + t_A1_c_r[2,0] + t_A1_c_r[3,0]
   + t_A1_c_r[4,0] + t_ZN_c_r[1,0] + t_ZN_c_r[2,0] + t_ZN_c_r[3,0]
   + t_ZN_c_r[4,0] + 20 cond_col3_row0_netA2 <= 20
 cond_lower_3_0_A2: t_net16_c_r[1,0] + t_net16_c_r[2,0] + t_net16_c_r[3,0]
   + t_net16_c_r[4,0] + t_A1_c_r[1,0] + t_A1_c_r[2,0] + t_A1_c_r[3,0]
   + t_A1_c_r[4,0] + t_ZN_c_r[1,0] + t_ZN_c_r[2,0] + t_ZN_c_r[3,0]
   + t_ZN_c_r[4,0] + cond_col3_row0_netA2 - one_pin_net_bin_A2
   - pin_is_there_0_A2 >= -1
 via_used_binary_upper: indicator_ZN_pp_3 + indicator_ZN_nn_3
   + indicator_ZN_ac_3 + indicator_ZN_pp_6 + indicator_ZN_nn_6
   + indicator_ZN_ac_6 + indicator_ZN_pp_9 + indicator_ZN_nn_9
   + indicator_ZN_ac_9 + indicator_ZN_pp_12 + indicator_ZN_nn_12
   + indicator_ZN_ac_12 + indicator_ZN_pp_15 + indicator_ZN_nn_15
   + indicator_ZN_ac_15 + 20 one_pin_net_bin_ZN <= 21
 via_used_binary_lower: indicator_ZN_pp_3 + indicator_ZN_nn_3
   + indicator_ZN_ac_3 + indicator_ZN_pp_6 + indicator_ZN_nn_6
   + indicator_ZN_ac_6 + indicator_ZN_pp_9 + indicator_ZN_nn_9
   + indicator_ZN_ac_9 + indicator_ZN_pp_12 + indicator_ZN_nn_12
   + indicator_ZN_ac_12 + indicator_ZN_pp_15 + indicator_ZN_nn_15
   + indicator_ZN_ac_15 + 20 one_pin_net_bin_ZN >= 2
 cond_via_3_0_ZN: cond_col3_row0_netZN - one_pin_net_bin_ZN <= 0
 cond_pinmetal_3_0_ZN: - t_ZN_c_r[1,0] - t_ZN_c_r[2,0] - t_ZN_c_r[3,0]
   - t_ZN_c_r[4,0] + cond_col3_row0_netZN <= 0
 pin_is_there1_pinmetal_3_0_ZN: - t_ZN_c_r[1,0] - t_ZN_c_r[2,0]
   - t_ZN_c_r[3,0] - t_ZN_c_r[4,0] + pin_is_there_0_ZN <= 0
 pin_is_there2_pinmetal_3_0_ZN: - 0.25 t_ZN_c_r[1,0] - 0.25 t_ZN_c_r[2,0]
   - 0.25 t_ZN_c_r[3,0] - 0.25 t_ZN_c_r[4,0] + pin_is_there_0_ZN >= 0
 cond_upper_3_0_ZN: t_A2_c_r[1,0] + t_A2_c_r[2,0] + t_A2_c_r[3,0]
   + t_A2_c_r[4,0] + t_net16_c_r[1,0] + t_net16_c_r[2,0] + t_net16_c_r[3,0]
   + t_net16_c_r[4,0] + t_A1_c_r[1,0] + t_A1_c_r[2,0] + t_A1_c_r[3,0]
   + t_A1_c_r[4,0] + 20 cond_col3_row0_netZN <= 20
 cond_lower_3_0_ZN: t_A2_c_r[1,0] + t_A2_c_r[2,0] + t_A2_c_r[3,0]
   + t_A2_c_r[4,0] + t_net16_c_r[1,0] + t_net16_c_r[2,0] + t_net16_c_r[3,0]
   + t_net16_c_r[4,0] + t_A1_c_r[1,0] + t_A1_c_r[2,0] + t_A1_c_r[3,0]
   + t_A1_c_r[4,0] + cond_col3_row0_netZN - one_pin_net_bin_ZN
   - pin_is_there_0_ZN >= -1
 reward_make_for_3: p_e_r_3 - cond_col3_row3_netA1 - cond_col3_row3_netA2
   - cond_col3_row3_netZN - cond_col3_row2_netA1 - cond_col3_row2_netA2
   - cond_col3_row2_netZN - cond_col3_row1_netA1 - cond_col3_row1_netA2
   - cond_col3_row1_netZN - cond_col3_row0_netA1 - cond_col3_row0_netA2
   - cond_col3_row0_netZN = 0
 z_le_net1_1_A1_3: - c_mar_row_A1_ac_6_r[3] + z_1_A1_A2_3_0 <= 0
 z_le_net2_1_A2_0: - c_mar_row_A2_ac_12_r[0] + z_1_A1_A2_3_0 <= 0
 z_ge_1_A1_A2_3_0: - c_mar_row_A2_ac_12_r[0] - c_mar_row_A1_ac_6_r[3]
   + z_1_A1_A2_3_0 >= -1
 z_le_net1_1_A1_0: - c_mar_row_A1_ac_6_r[0] + z_1_A1_A2_0_3 <= 0
 z_le_net2_1_A2_3: - c_mar_row_A2_ac_12_r[3] + z_1_A1_A2_0_3 <= 0
 z_ge_1_A1_A2_0_3: - c_mar_row_A2_ac_12_r[3] - c_mar_row_A1_ac_6_r[0]
   + z_1_A1_A2_0_3 >= -1
 z_le_net1_1_A1_3: - c_mar_row_A1_ac_6_r[3] + z_1_A1_ZN_3_0 <= 0
 z_le_net2_1_ZN_0: - c_mar_row_ZN_ac_12_r[0] + z_1_A1_ZN_3_0 <= 0
 z_ge_1_A1_ZN_3_0: - c_mar_row_A1_ac_6_r[3] - c_mar_row_ZN_ac_12_r[0]
   + z_1_A1_ZN_3_0 >= -1
 z_le_net1_1_A1_0: - c_mar_row_A1_ac_6_r[0] + z_1_A1_ZN_0_3 <= 0
 z_le_net2_1_ZN_3: - c_mar_row_ZN_ac_12_r[3] + z_1_A1_ZN_0_3 <= 0
 z_ge_1_A1_ZN_0_3: - c_mar_row_A1_ac_6_r[0] - c_mar_row_ZN_ac_12_r[3]
   + z_1_A1_ZN_0_3 >= -1
 z_le_net1_1_A2_3: - c_mar_row_A2_ac_6_r[3] + z_1_A2_A1_3_0 <= 0
 z_le_net2_1_A1_0: - c_mar_row_A1_ac_12_r[0] + z_1_A2_A1_3_0 <= 0
 z_ge_1_A2_A1_3_0: - c_mar_row_A2_ac_6_r[3] - c_mar_row_A1_ac_12_r[0]
   + z_1_A2_A1_3_0 >= -1
 z_le_net1_1_A2_0: - c_mar_row_A2_ac_6_r[0] + z_1_A2_A1_0_3 <= 0
 z_le_net2_1_A1_3: - c_mar_row_A1_ac_12_r[3] + z_1_A2_A1_0_3 <= 0
 z_ge_1_A2_A1_0_3: - c_mar_row_A2_ac_6_r[0] - c_mar_row_A1_ac_12_r[3]
   + z_1_A2_A1_0_3 >= -1
 z_le_net1_1_A2_3: - c_mar_row_A2_ac_6_r[3] + z_1_A2_ZN_3_0 <= 0
 z_le_net2_1_ZN_0: - c_mar_row_ZN_ac_12_r[0] + z_1_A2_ZN_3_0 <= 0
 z_ge_1_A2_ZN_3_0: - c_mar_row_A2_ac_6_r[3] - c_mar_row_ZN_ac_12_r[0]
   + z_1_A2_ZN_3_0 >= -1
 z_le_net1_1_A2_0: - c_mar_row_A2_ac_6_r[0] + z_1_A2_ZN_0_3 <= 0
 z_le_net2_1_ZN_3: - c_mar_row_ZN_ac_12_r[3] + z_1_A2_ZN_0_3 <= 0
 z_ge_1_A2_ZN_0_3: - c_mar_row_A2_ac_6_r[0] - c_mar_row_ZN_ac_12_r[3]
   + z_1_A2_ZN_0_3 >= -1
 z_le_net1_1_ZN_3: - c_mar_row_ZN_ac_6_r[3] + z_1_ZN_A1_3_0 <= 0
 z_le_net2_1_A1_0: - c_mar_row_A1_ac_12_r[0] + z_1_ZN_A1_3_0 <= 0
 z_ge_1_ZN_A1_3_0: - c_mar_row_A1_ac_12_r[0] - c_mar_row_ZN_ac_6_r[3]
   + z_1_ZN_A1_3_0 >= -1
 z_le_net1_1_ZN_0: - c_mar_row_ZN_ac_6_r[0] + z_1_ZN_A1_0_3 <= 0
 z_le_net2_1_A1_3: - c_mar_row_A1_ac_12_r[3] + z_1_ZN_A1_0_3 <= 0
 z_ge_1_ZN_A1_0_3: - c_mar_row_A1_ac_12_r[3] - c_mar_row_ZN_ac_6_r[0]
   + z_1_ZN_A1_0_3 >= -1
 z_le_net1_1_ZN_3: - c_mar_row_ZN_ac_6_r[3] + z_1_ZN_A2_3_0 <= 0
 z_le_net2_1_A2_0: - c_mar_row_A2_ac_12_r[0] + z_1_ZN_A2_3_0 <= 0
 z_ge_1_ZN_A2_3_0: - c_mar_row_A2_ac_12_r[0] - c_mar_row_ZN_ac_6_r[3]
   + z_1_ZN_A2_3_0 >= -1
 z_le_net1_1_ZN_0: - c_mar_row_ZN_ac_6_r[0] + z_1_ZN_A2_0_3 <= 0
 z_le_net2_1_A2_3: - c_mar_row_A2_ac_12_r[3] + z_1_ZN_A2_0_3 <= 0
 z_ge_1_ZN_A2_0_3: - c_mar_row_A2_ac_12_r[3] - c_mar_row_ZN_ac_6_r[0]
   + z_1_ZN_A2_0_3 >= -1
 o_m_p_constr1_7: - ut_net16_c_r[0,7] - ut_net16_c_r[1,7]
   - ut_net16_c_r[2,7] - ut_net16_c_r[3,7] - ut_net16_c_r[4,7] + o_m_p_7
   <= 0
 o_m_p_constr2_net16_0_7: - ut_net16_c_r[0,7] + o_m_p_7 >= 0
 o_m_p_constr2_net16_1_7: - ut_net16_c_r[1,7] + o_m_p_7 >= 0
 o_m_p_constr2_net16_2_7: - ut_net16_c_r[2,7] + o_m_p_7 >= 0
 o_m_p_constr2_net16_3_7: - ut_net16_c_r[3,7] + o_m_p_7 >= 0
 o_m_p_constr2_net16_4_7: - ut_net16_c_r[4,7] + o_m_p_7 >= 0
 o_m_p_constr1_6: - ut_net16_c_r[0,6] - ut_net16_c_r[1,6]
   - ut_net16_c_r[2,6] - ut_net16_c_r[3,6] - ut_net16_c_r[4,6] + o_m_p_6
   <= 0
 o_m_p_constr2_net16_0_6: - ut_net16_c_r[0,6] + o_m_p_6 >= 0
 o_m_p_constr2_net16_1_6: - ut_net16_c_r[1,6] + o_m_p_6 >= 0
 o_m_p_constr2_net16_2_6: - ut_net16_c_r[2,6] + o_m_p_6 >= 0
 o_m_p_constr2_net16_3_6: - ut_net16_c_r[3,6] + o_m_p_6 >= 0
 o_m_p_constr2_net16_4_6: - ut_net16_c_r[4,6] + o_m_p_6 >= 0
 o_m_p_constr1_5: - ut_net16_c_r[0,5] - ut_net16_c_r[1,5]
   - ut_net16_c_r[2,5] - ut_net16_c_r[3,5] - ut_net16_c_r[4,5] + o_m_p_5
   <= 0
 o_m_p_constr2_net16_0_5: - ut_net16_c_r[0,5] + o_m_p_5 >= 0
 o_m_p_constr2_net16_1_5: - ut_net16_c_r[1,5] + o_m_p_5 >= 0
 o_m_p_constr2_net16_2_5: - ut_net16_c_r[2,5] + o_m_p_5 >= 0
 o_m_p_constr2_net16_3_5: - ut_net16_c_r[3,5] + o_m_p_5 >= 0
 o_m_p_constr2_net16_4_5: - ut_net16_c_r[4,5] + o_m_p_5 >= 0
 o_m_p_constr1_4: - ut_net16_c_r[0,4] - ut_net16_c_r[1,4]
   - ut_net16_c_r[2,4] - ut_net16_c_r[3,4] - ut_net16_c_r[4,4] + o_m_p_4
   <= 0
 o_m_p_constr2_net16_0_4: - ut_net16_c_r[0,4] + o_m_p_4 >= 0
 o_m_p_constr2_net16_1_4: - ut_net16_c_r[1,4] + o_m_p_4 >= 0
 o_m_p_constr2_net16_2_4: - ut_net16_c_r[2,4] + o_m_p_4 >= 0
 o_m_p_constr2_net16_3_4: - ut_net16_c_r[3,4] + o_m_p_4 >= 0
 o_m_p_constr2_net16_4_4: - ut_net16_c_r[4,4] + o_m_p_4 >= 0
 uppertrack_cost_0: ut_c_0 - ut_c_0_7 - ut_c_0_6 - ut_c_0_5 - ut_c_0_4 = 0
 track_cost_0: t_c_0 - t_c_0_3 - t_c_0_2 - t_c_0_1 - t_c_0_0 = 0
 max_track_0: t_c_0 <= 4
 uppertrack_cost_1: ut_c_1 - ut_c_1_7 - ut_c_1_6 - ut_c_1_5 - ut_c_1_4 = 0
 track_cost_1: t_c_1 - t_c_1_3 - t_c_1_2 - t_c_1_1 - t_c_1_0 = 0
 max_track_1: t_c_1 <= 4
 uppertrack_cost_2: ut_c_2 - ut_c_2_7 - ut_c_2_6 - ut_c_2_5 - ut_c_2_4 = 0
 track_cost_2: t_c_2 - t_c_2_3 - t_c_2_2 - t_c_2_1 - t_c_2_0 = 0
 max_track_2: t_c_2 <= 4
 uppertrack_cost_3: ut_c_3 - ut_c_3_7 - ut_c_3_6 - ut_c_3_5 - ut_c_3_4 = 0
 track_cost_3: t_c_3 - t_c_3_3 - t_c_3_2 - t_c_3_1 - t_c_3_0 = 0
 max_track_3: t_c_3 <= 4
 uppertrack_cost_4: ut_c_4 - ut_c_4_7 - ut_c_4_6 - ut_c_4_5 - ut_c_4_4 = 0
 track_cost_4: t_c_4 - t_c_4_3 - t_c_4_2 - t_c_4_1 - t_c_4_0 = 0
 max_track_4: t_c_4 <= 4
 t_definition_root_A2_ac_3: root_node_A2_ac_3 = 1 -> indicator_A2_pp_3
   + indicator_A2_nn_3 + indicator_A2_ac_3 + indicator_A2_pp_6
   + indicator_A2_nn_6 + indicator_A2_ac_6 + indicator_A2_pp_9
   + indicator_A2_nn_9 + indicator_A2_ac_9 + indicator_A2_pp_12
   + indicator_A2_nn_12 + indicator_A2_ac_12 + indicator_A2_pp_15
   + indicator_A2_nn_15 + indicator_A2_ac_15 + cap_A2_ac_3 = 1
 t_definition_non_root_A2_ac_3: root_node_A2_ac_3 = 0 ->
   - indicator_A2_ac_3 + cap_A2_ac_3 = 0
 t_definition_root_A2_nn_3: root_node_A2_nn_3 = 1 -> indicator_A2_pp_3
   + indicator_A2_nn_3 + indicator_A2_ac_3 + indicator_A2_pp_6
   + indicator_A2_nn_6 + indicator_A2_ac_6 + indicator_A2_pp_9
   + indicator_A2_nn_9 + indicator_A2_ac_9 + indicator_A2_pp_12
   + indicator_A2_nn_12 + indicator_A2_ac_12 + indicator_A2_pp_15
   + indicator_A2_nn_15 + indicator_A2_ac_15 + cap_A2_nn_3 = 1
 t_definition_non_root_A2_nn_3: root_node_A2_nn_3 = 0 ->
   - indicator_A2_nn_3 + cap_A2_nn_3 = 0
 t_definition_root_A2_pp_3: root_node_A2_pp_3 = 1 -> indicator_A2_pp_3
   + indicator_A2_nn_3 + indicator_A2_ac_3 + indicator_A2_pp_6
   + indicator_A2_nn_6 + indicator_A2_ac_6 + indicator_A2_pp_9
   + indicator_A2_nn_9 + indicator_A2_ac_9 + indicator_A2_pp_12
   + indicator_A2_nn_12 + indicator_A2_ac_12 + indicator_A2_pp_15
   + indicator_A2_nn_15 + indicator_A2_ac_15 + cap_A2_pp_3 = 1
 t_definition_non_root_A2_pp_3: root_node_A2_pp_3 = 0 ->
   - indicator_A2_pp_3 + cap_A2_pp_3 = 0
 t_definition_root_A2_ac_6: root_node_A2_ac_6 = 1 -> indicator_A2_pp_3
   + indicator_A2_nn_3 + indicator_A2_ac_3 + indicator_A2_pp_6
   + indicator_A2_nn_6 + indicator_A2_ac_6 + indicator_A2_pp_9
   + indicator_A2_nn_9 + indicator_A2_ac_9 + indicator_A2_pp_12
   + indicator_A2_nn_12 + indicator_A2_ac_12 + indicator_A2_pp_15
   + indicator_A2_nn_15 + indicator_A2_ac_15 + cap_A2_ac_6 = 1
 t_definition_non_root_A2_ac_6: root_node_A2_ac_6 = 0 ->
   - indicator_A2_ac_6 + cap_A2_ac_6 = 0
 t_definition_root_A2_nn_6: root_node_A2_nn_6 = 1 -> indicator_A2_pp_3
   + indicator_A2_nn_3 + indicator_A2_ac_3 + indicator_A2_pp_6
   + indicator_A2_nn_6 + indicator_A2_ac_6 + indicator_A2_pp_9
   + indicator_A2_nn_9 + indicator_A2_ac_9 + indicator_A2_pp_12
   + indicator_A2_nn_12 + indicator_A2_ac_12 + indicator_A2_pp_15
   + indicator_A2_nn_15 + indicator_A2_ac_15 + cap_A2_nn_6 = 1
 t_definition_non_root_A2_nn_6: root_node_A2_nn_6 = 0 ->
   - indicator_A2_nn_6 + cap_A2_nn_6 = 0
 t_definition_root_A2_pp_6: root_node_A2_pp_6 = 1 -> indicator_A2_pp_3
   + indicator_A2_nn_3 + indicator_A2_ac_3 + indicator_A2_pp_6
   + indicator_A2_nn_6 + indicator_A2_ac_6 + indicator_A2_pp_9
   + indicator_A2_nn_9 + indicator_A2_ac_9 + indicator_A2_pp_12
   + indicator_A2_nn_12 + indicator_A2_ac_12 + indicator_A2_pp_15
   + indicator_A2_nn_15 + indicator_A2_ac_15 + cap_A2_pp_6 = 1
 t_definition_non_root_A2_pp_6: root_node_A2_pp_6 = 0 ->
   - indicator_A2_pp_6 + cap_A2_pp_6 = 0
 t_definition_root_A2_ac_9: root_node_A2_ac_9 = 1 -> indicator_A2_pp_3
   + indicator_A2_nn_3 + indicator_A2_ac_3 + indicator_A2_pp_6
   + indicator_A2_nn_6 + indicator_A2_ac_6 + indicator_A2_pp_9
   + indicator_A2_nn_9 + indicator_A2_ac_9 + indicator_A2_pp_12
   + indicator_A2_nn_12 + indicator_A2_ac_12 + indicator_A2_pp_15
   + indicator_A2_nn_15 + indicator_A2_ac_15 + cap_A2_ac_9 = 1
 t_definition_non_root_A2_ac_9: root_node_A2_ac_9 = 0 ->
   - indicator_A2_ac_9 + cap_A2_ac_9 = 0
 t_definition_root_A2_nn_9: root_node_A2_nn_9 = 1 -> indicator_A2_pp_3
   + indicator_A2_nn_3 + indicator_A2_ac_3 + indicator_A2_pp_6
   + indicator_A2_nn_6 + indicator_A2_ac_6 + indicator_A2_pp_9
   + indicator_A2_nn_9 + indicator_A2_ac_9 + indicator_A2_pp_12
   + indicator_A2_nn_12 + indicator_A2_ac_12 + indicator_A2_pp_15
   + indicator_A2_nn_15 + indicator_A2_ac_15 + cap_A2_nn_9 = 1
 t_definition_non_root_A2_nn_9: root_node_A2_nn_9 = 0 ->
   - indicator_A2_nn_9 + cap_A2_nn_9 = 0
 t_definition_root_A2_pp_9: root_node_A2_pp_9 = 1 -> indicator_A2_pp_3
   + indicator_A2_nn_3 + indicator_A2_ac_3 + indicator_A2_pp_6
   + indicator_A2_nn_6 + indicator_A2_ac_6 + indicator_A2_pp_9
   + indicator_A2_nn_9 + indicator_A2_ac_9 + indicator_A2_pp_12
   + indicator_A2_nn_12 + indicator_A2_ac_12 + indicator_A2_pp_15
   + indicator_A2_nn_15 + indicator_A2_ac_15 + cap_A2_pp_9 = 1
 t_definition_non_root_A2_pp_9: root_node_A2_pp_9 = 0 ->
   - indicator_A2_pp_9 + cap_A2_pp_9 = 0
 t_definition_root_A2_ac_12: root_node_A2_ac_12 = 1 -> indicator_A2_pp_3
   + indicator_A2_nn_3 + indicator_A2_ac_3 + indicator_A2_pp_6
   + indicator_A2_nn_6 + indicator_A2_ac_6 + indicator_A2_pp_9
   + indicator_A2_nn_9 + indicator_A2_ac_9 + indicator_A2_pp_12
   + indicator_A2_nn_12 + indicator_A2_ac_12 + indicator_A2_pp_15
   + indicator_A2_nn_15 + indicator_A2_ac_15 + cap_A2_ac_12 = 1
 t_definition_non_root_A2_ac_12: root_node_A2_ac_12 = 0 ->
   - indicator_A2_ac_12 + cap_A2_ac_12 = 0
 t_definition_root_A2_nn_12: root_node_A2_nn_12 = 1 -> indicator_A2_pp_3
   + indicator_A2_nn_3 + indicator_A2_ac_3 + indicator_A2_pp_6
   + indicator_A2_nn_6 + indicator_A2_ac_6 + indicator_A2_pp_9
   + indicator_A2_nn_9 + indicator_A2_ac_9 + indicator_A2_pp_12
   + indicator_A2_nn_12 + indicator_A2_ac_12 + indicator_A2_pp_15
   + indicator_A2_nn_15 + indicator_A2_ac_15 + cap_A2_nn_12 = 1
 t_definition_non_root_A2_nn_12: root_node_A2_nn_12 = 0 ->
   - indicator_A2_nn_12 + cap_A2_nn_12 = 0
 t_definition_root_A2_pp_12: root_node_A2_pp_12 = 1 -> indicator_A2_pp_3
   + indicator_A2_nn_3 + indicator_A2_ac_3 + indicator_A2_pp_6
   + indicator_A2_nn_6 + indicator_A2_ac_6 + indicator_A2_pp_9
   + indicator_A2_nn_9 + indicator_A2_ac_9 + indicator_A2_pp_12
   + indicator_A2_nn_12 + indicator_A2_ac_12 + indicator_A2_pp_15
   + indicator_A2_nn_15 + indicator_A2_ac_15 + cap_A2_pp_12 = 1
 t_definition_non_root_A2_pp_12: root_node_A2_pp_12 = 0 ->
   - indicator_A2_pp_12 + cap_A2_pp_12 = 0
 t_definition_root_A2_ac_15: root_node_A2_ac_15 = 1 -> indicator_A2_pp_3
   + indicator_A2_nn_3 + indicator_A2_ac_3 + indicator_A2_pp_6
   + indicator_A2_nn_6 + indicator_A2_ac_6 + indicator_A2_pp_9
   + indicator_A2_nn_9 + indicator_A2_ac_9 + indicator_A2_pp_12
   + indicator_A2_nn_12 + indicator_A2_ac_12 + indicator_A2_pp_15
   + indicator_A2_nn_15 + indicator_A2_ac_15 + cap_A2_ac_15 = 1
 t_definition_non_root_A2_ac_15: root_node_A2_ac_15 = 0 ->
   - indicator_A2_ac_15 + cap_A2_ac_15 = 0
 t_definition_root_A2_nn_15: root_node_A2_nn_15 = 1 -> indicator_A2_pp_3
   + indicator_A2_nn_3 + indicator_A2_ac_3 + indicator_A2_pp_6
   + indicator_A2_nn_6 + indicator_A2_ac_6 + indicator_A2_pp_9
   + indicator_A2_nn_9 + indicator_A2_ac_9 + indicator_A2_pp_12
   + indicator_A2_nn_12 + indicator_A2_ac_12 + indicator_A2_pp_15
   + indicator_A2_nn_15 + indicator_A2_ac_15 + cap_A2_nn_15 = 1
 t_definition_non_root_A2_nn_15: root_node_A2_nn_15 = 0 ->
   - indicator_A2_nn_15 + cap_A2_nn_15 = 0
 t_definition_root_A2_pp_15: root_node_A2_pp_15 = 1 -> indicator_A2_pp_3
   + indicator_A2_nn_3 + indicator_A2_ac_3 + indicator_A2_pp_6
   + indicator_A2_nn_6 + indicator_A2_ac_6 + indicator_A2_pp_9
   + indicator_A2_nn_9 + indicator_A2_ac_9 + indicator_A2_pp_12
   + indicator_A2_nn_12 + indicator_A2_ac_12 + indicator_A2_pp_15
   + indicator_A2_nn_15 + indicator_A2_ac_15 + cap_A2_pp_15 = 1
 t_definition_non_root_A2_pp_15: root_node_A2_pp_15 = 0 ->
   - indicator_A2_pp_15 + cap_A2_pp_15 = 0
 t_definition_root_net16_ac_3: root_node_net16_ac_3 = 1 ->
   indicator_net16_pp_3 + indicator_net16_nn_3 + indicator_net16_ac_3
   + indicator_net16_pp_6 + indicator_net16_nn_6 + indicator_net16_ac_6
   + indicator_net16_pp_9 + indicator_net16_nn_9 + indicator_net16_ac_9
   + indicator_net16_pp_12 + indicator_net16_nn_12 + indicator_net16_ac_12
   + indicator_net16_pp_15 + indicator_net16_nn_15 + indicator_net16_ac_15
   + cap_net16_ac_3 = 1
 t_definition_non_root_net16_ac_3: root_node_net16_ac_3 = 0 ->
   - indicator_net16_ac_3 + cap_net16_ac_3 = 0
 t_definition_root_net16_nn_3: root_node_net16_nn_3 = 1 ->
   indicator_net16_pp_3 + indicator_net16_nn_3 + indicator_net16_ac_3
   + indicator_net16_pp_6 + indicator_net16_nn_6 + indicator_net16_ac_6
   + indicator_net16_pp_9 + indicator_net16_nn_9 + indicator_net16_ac_9
   + indicator_net16_pp_12 + indicator_net16_nn_12 + indicator_net16_ac_12
   + indicator_net16_pp_15 + indicator_net16_nn_15 + indicator_net16_ac_15
   + cap_net16_nn_3 = 1
 t_definition_non_root_net16_nn_3: root_node_net16_nn_3 = 0 ->
   - indicator_net16_nn_3 + cap_net16_nn_3 = 0
 t_definition_root_net16_pp_3: root_node_net16_pp_3 = 1 ->
   indicator_net16_pp_3 + indicator_net16_nn_3 + indicator_net16_ac_3
   + indicator_net16_pp_6 + indicator_net16_nn_6 + indicator_net16_ac_6
   + indicator_net16_pp_9 + indicator_net16_nn_9 + indicator_net16_ac_9
   + indicator_net16_pp_12 + indicator_net16_nn_12 + indicator_net16_ac_12
   + indicator_net16_pp_15 + indicator_net16_nn_15 + indicator_net16_ac_15
   + cap_net16_pp_3 = 1
 t_definition_non_root_net16_pp_3: root_node_net16_pp_3 = 0 ->
   - indicator_net16_pp_3 + cap_net16_pp_3 = 0
 t_definition_root_net16_ac_6: root_node_net16_ac_6 = 1 ->
   indicator_net16_pp_3 + indicator_net16_nn_3 + indicator_net16_ac_3
   + indicator_net16_pp_6 + indicator_net16_nn_6 + indicator_net16_ac_6
   + indicator_net16_pp_9 + indicator_net16_nn_9 + indicator_net16_ac_9
   + indicator_net16_pp_12 + indicator_net16_nn_12 + indicator_net16_ac_12
   + indicator_net16_pp_15 + indicator_net16_nn_15 + indicator_net16_ac_15
   + cap_net16_ac_6 = 1
 t_definition_non_root_net16_ac_6: root_node_net16_ac_6 = 0 ->
   - indicator_net16_ac_6 + cap_net16_ac_6 = 0
 t_definition_root_net16_nn_6: root_node_net16_nn_6 = 1 ->
   indicator_net16_pp_3 + indicator_net16_nn_3 + indicator_net16_ac_3
   + indicator_net16_pp_6 + indicator_net16_nn_6 + indicator_net16_ac_6
   + indicator_net16_pp_9 + indicator_net16_nn_9 + indicator_net16_ac_9
   + indicator_net16_pp_12 + indicator_net16_nn_12 + indicator_net16_ac_12
   + indicator_net16_pp_15 + indicator_net16_nn_15 + indicator_net16_ac_15
   + cap_net16_nn_6 = 1
 t_definition_non_root_net16_nn_6: root_node_net16_nn_6 = 0 ->
   - indicator_net16_nn_6 + cap_net16_nn_6 = 0
 t_definition_root_net16_pp_6: root_node_net16_pp_6 = 1 ->
   indicator_net16_pp_3 + indicator_net16_nn_3 + indicator_net16_ac_3
   + indicator_net16_pp_6 + indicator_net16_nn_6 + indicator_net16_ac_6
   + indicator_net16_pp_9 + indicator_net16_nn_9 + indicator_net16_ac_9
   + indicator_net16_pp_12 + indicator_net16_nn_12 + indicator_net16_ac_12
   + indicator_net16_pp_15 + indicator_net16_nn_15 + indicator_net16_ac_15
   + cap_net16_pp_6 = 1
 t_definition_non_root_net16_pp_6: root_node_net16_pp_6 = 0 ->
   - indicator_net16_pp_6 + cap_net16_pp_6 = 0
 t_definition_root_net16_ac_9: root_node_net16_ac_9 = 1 ->
   indicator_net16_pp_3 + indicator_net16_nn_3 + indicator_net16_ac_3
   + indicator_net16_pp_6 + indicator_net16_nn_6 + indicator_net16_ac_6
   + indicator_net16_pp_9 + indicator_net16_nn_9 + indicator_net16_ac_9
   + indicator_net16_pp_12 + indicator_net16_nn_12 + indicator_net16_ac_12
   + indicator_net16_pp_15 + indicator_net16_nn_15 + indicator_net16_ac_15
   + cap_net16_ac_9 = 1
 t_definition_non_root_net16_ac_9: root_node_net16_ac_9 = 0 ->
   - indicator_net16_ac_9 + cap_net16_ac_9 = 0
 t_definition_root_net16_nn_9: root_node_net16_nn_9 = 1 ->
   indicator_net16_pp_3 + indicator_net16_nn_3 + indicator_net16_ac_3
   + indicator_net16_pp_6 + indicator_net16_nn_6 + indicator_net16_ac_6
   + indicator_net16_pp_9 + indicator_net16_nn_9 + indicator_net16_ac_9
   + indicator_net16_pp_12 + indicator_net16_nn_12 + indicator_net16_ac_12
   + indicator_net16_pp_15 + indicator_net16_nn_15 + indicator_net16_ac_15
   + cap_net16_nn_9 = 1
 t_definition_non_root_net16_nn_9: root_node_net16_nn_9 = 0 ->
   - indicator_net16_nn_9 + cap_net16_nn_9 = 0
 t_definition_root_net16_pp_9: root_node_net16_pp_9 = 1 ->
   indicator_net16_pp_3 + indicator_net16_nn_3 + indicator_net16_ac_3
   + indicator_net16_pp_6 + indicator_net16_nn_6 + indicator_net16_ac_6
   + indicator_net16_pp_9 + indicator_net16_nn_9 + indicator_net16_ac_9
   + indicator_net16_pp_12 + indicator_net16_nn_12 + indicator_net16_ac_12
   + indicator_net16_pp_15 + indicator_net16_nn_15 + indicator_net16_ac_15
   + cap_net16_pp_9 = 1
 t_definition_non_root_net16_pp_9: root_node_net16_pp_9 = 0 ->
   - indicator_net16_pp_9 + cap_net16_pp_9 = 0
 t_definition_root_net16_ac_12: root_node_net16_ac_12 = 1 ->
   indicator_net16_pp_3 + indicator_net16_nn_3 + indicator_net16_ac_3
   + indicator_net16_pp_6 + indicator_net16_nn_6 + indicator_net16_ac_6
   + indicator_net16_pp_9 + indicator_net16_nn_9 + indicator_net16_ac_9
   + indicator_net16_pp_12 + indicator_net16_nn_12 + indicator_net16_ac_12
   + indicator_net16_pp_15 + indicator_net16_nn_15 + indicator_net16_ac_15
   + cap_net16_ac_12 = 1
 t_definition_non_root_net16_ac_12: root_node_net16_ac_12 = 0 ->
   - indicator_net16_ac_12 + cap_net16_ac_12 = 0
 t_definition_root_net16_nn_12: root_node_net16_nn_12 = 1 ->
   indicator_net16_pp_3 + indicator_net16_nn_3 + indicator_net16_ac_3
   + indicator_net16_pp_6 + indicator_net16_nn_6 + indicator_net16_ac_6
   + indicator_net16_pp_9 + indicator_net16_nn_9 + indicator_net16_ac_9
   + indicator_net16_pp_12 + indicator_net16_nn_12 + indicator_net16_ac_12
   + indicator_net16_pp_15 + indicator_net16_nn_15 + indicator_net16_ac_15
   + cap_net16_nn_12 = 1
 t_definition_non_root_net16_nn_12: root_node_net16_nn_12 = 0 ->
   - indicator_net16_nn_12 + cap_net16_nn_12 = 0
 t_definition_root_net16_pp_12: root_node_net16_pp_12 = 1 ->
   indicator_net16_pp_3 + indicator_net16_nn_3 + indicator_net16_ac_3
   + indicator_net16_pp_6 + indicator_net16_nn_6 + indicator_net16_ac_6
   + indicator_net16_pp_9 + indicator_net16_nn_9 + indicator_net16_ac_9
   + indicator_net16_pp_12 + indicator_net16_nn_12 + indicator_net16_ac_12
   + indicator_net16_pp_15 + indicator_net16_nn_15 + indicator_net16_ac_15
   + cap_net16_pp_12 = 1
 t_definition_non_root_net16_pp_12: root_node_net16_pp_12 = 0 ->
   - indicator_net16_pp_12 + cap_net16_pp_12 = 0
 t_definition_root_net16_ac_15: root_node_net16_ac_15 = 1 ->
   indicator_net16_pp_3 + indicator_net16_nn_3 + indicator_net16_ac_3
   + indicator_net16_pp_6 + indicator_net16_nn_6 + indicator_net16_ac_6
   + indicator_net16_pp_9 + indicator_net16_nn_9 + indicator_net16_ac_9
   + indicator_net16_pp_12 + indicator_net16_nn_12 + indicator_net16_ac_12
   + indicator_net16_pp_15 + indicator_net16_nn_15 + indicator_net16_ac_15
   + cap_net16_ac_15 = 1
 t_definition_non_root_net16_ac_15: root_node_net16_ac_15 = 0 ->
   - indicator_net16_ac_15 + cap_net16_ac_15 = 0
 t_definition_root_net16_nn_15: root_node_net16_nn_15 = 1 ->
   indicator_net16_pp_3 + indicator_net16_nn_3 + indicator_net16_ac_3
   + indicator_net16_pp_6 + indicator_net16_nn_6 + indicator_net16_ac_6
   + indicator_net16_pp_9 + indicator_net16_nn_9 + indicator_net16_ac_9
   + indicator_net16_pp_12 + indicator_net16_nn_12 + indicator_net16_ac_12
   + indicator_net16_pp_15 + indicator_net16_nn_15 + indicator_net16_ac_15
   + cap_net16_nn_15 = 1
 t_definition_non_root_net16_nn_15: root_node_net16_nn_15 = 0 ->
   - indicator_net16_nn_15 + cap_net16_nn_15 = 0
 t_definition_root_net16_pp_15: root_node_net16_pp_15 = 1 ->
   indicator_net16_pp_3 + indicator_net16_nn_3 + indicator_net16_ac_3
   + indicator_net16_pp_6 + indicator_net16_nn_6 + indicator_net16_ac_6
   + indicator_net16_pp_9 + indicator_net16_nn_9 + indicator_net16_ac_9
   + indicator_net16_pp_12 + indicator_net16_nn_12 + indicator_net16_ac_12
   + indicator_net16_pp_15 + indicator_net16_nn_15 + indicator_net16_ac_15
   + cap_net16_pp_15 = 1
 t_definition_non_root_net16_pp_15: root_node_net16_pp_15 = 0 ->
   - indicator_net16_pp_15 + cap_net16_pp_15 = 0
 t_definition_root_A1_ac_3: root_node_A1_ac_3 = 1 -> indicator_A1_pp_3
   + indicator_A1_nn_3 + indicator_A1_ac_3 + indicator_A1_pp_6
   + indicator_A1_nn_6 + indicator_A1_ac_6 + indicator_A1_pp_9
   + indicator_A1_nn_9 + indicator_A1_ac_9 + indicator_A1_pp_12
   + indicator_A1_nn_12 + indicator_A1_ac_12 + indicator_A1_pp_15
   + indicator_A1_nn_15 + indicator_A1_ac_15 + cap_A1_ac_3 = 1
 t_definition_non_root_A1_ac_3: root_node_A1_ac_3 = 0 ->
   - indicator_A1_ac_3 + cap_A1_ac_3 = 0
 t_definition_root_A1_nn_3: root_node_A1_nn_3 = 1 -> indicator_A1_pp_3
   + indicator_A1_nn_3 + indicator_A1_ac_3 + indicator_A1_pp_6
   + indicator_A1_nn_6 + indicator_A1_ac_6 + indicator_A1_pp_9
   + indicator_A1_nn_9 + indicator_A1_ac_9 + indicator_A1_pp_12
   + indicator_A1_nn_12 + indicator_A1_ac_12 + indicator_A1_pp_15
   + indicator_A1_nn_15 + indicator_A1_ac_15 + cap_A1_nn_3 = 1
 t_definition_non_root_A1_nn_3: root_node_A1_nn_3 = 0 ->
   - indicator_A1_nn_3 + cap_A1_nn_3 = 0
 t_definition_root_A1_pp_3: root_node_A1_pp_3 = 1 -> indicator_A1_pp_3
   + indicator_A1_nn_3 + indicator_A1_ac_3 + indicator_A1_pp_6
   + indicator_A1_nn_6 + indicator_A1_ac_6 + indicator_A1_pp_9
   + indicator_A1_nn_9 + indicator_A1_ac_9 + indicator_A1_pp_12
   + indicator_A1_nn_12 + indicator_A1_ac_12 + indicator_A1_pp_15
   + indicator_A1_nn_15 + indicator_A1_ac_15 + cap_A1_pp_3 = 1
 t_definition_non_root_A1_pp_3: root_node_A1_pp_3 = 0 ->
   - indicator_A1_pp_3 + cap_A1_pp_3 = 0
 t_definition_root_A1_ac_6: root_node_A1_ac_6 = 1 -> indicator_A1_pp_3
   + indicator_A1_nn_3 + indicator_A1_ac_3 + indicator_A1_pp_6
   + indicator_A1_nn_6 + indicator_A1_ac_6 + indicator_A1_pp_9
   + indicator_A1_nn_9 + indicator_A1_ac_9 + indicator_A1_pp_12
   + indicator_A1_nn_12 + indicator_A1_ac_12 + indicator_A1_pp_15
   + indicator_A1_nn_15 + indicator_A1_ac_15 + cap_A1_ac_6 = 1
 t_definition_non_root_A1_ac_6: root_node_A1_ac_6 = 0 ->
   - indicator_A1_ac_6 + cap_A1_ac_6 = 0
 t_definition_root_A1_nn_6: root_node_A1_nn_6 = 1 -> indicator_A1_pp_3
   + indicator_A1_nn_3 + indicator_A1_ac_3 + indicator_A1_pp_6
   + indicator_A1_nn_6 + indicator_A1_ac_6 + indicator_A1_pp_9
   + indicator_A1_nn_9 + indicator_A1_ac_9 + indicator_A1_pp_12
   + indicator_A1_nn_12 + indicator_A1_ac_12 + indicator_A1_pp_15
   + indicator_A1_nn_15 + indicator_A1_ac_15 + cap_A1_nn_6 = 1
 t_definition_non_root_A1_nn_6: root_node_A1_nn_6 = 0 ->
   - indicator_A1_nn_6 + cap_A1_nn_6 = 0
 t_definition_root_A1_pp_6: root_node_A1_pp_6 = 1 -> indicator_A1_pp_3
   + indicator_A1_nn_3 + indicator_A1_ac_3 + indicator_A1_pp_6
   + indicator_A1_nn_6 + indicator_A1_ac_6 + indicator_A1_pp_9
   + indicator_A1_nn_9 + indicator_A1_ac_9 + indicator_A1_pp_12
   + indicator_A1_nn_12 + indicator_A1_ac_12 + indicator_A1_pp_15
   + indicator_A1_nn_15 + indicator_A1_ac_15 + cap_A1_pp_6 = 1
 t_definition_non_root_A1_pp_6: root_node_A1_pp_6 = 0 ->
   - indicator_A1_pp_6 + cap_A1_pp_6 = 0
 t_definition_root_A1_ac_9: root_node_A1_ac_9 = 1 -> indicator_A1_pp_3
   + indicator_A1_nn_3 + indicator_A1_ac_3 + indicator_A1_pp_6
   + indicator_A1_nn_6 + indicator_A1_ac_6 + indicator_A1_pp_9
   + indicator_A1_nn_9 + indicator_A1_ac_9 + indicator_A1_pp_12
   + indicator_A1_nn_12 + indicator_A1_ac_12 + indicator_A1_pp_15
   + indicator_A1_nn_15 + indicator_A1_ac_15 + cap_A1_ac_9 = 1
 t_definition_non_root_A1_ac_9: root_node_A1_ac_9 = 0 ->
   - indicator_A1_ac_9 + cap_A1_ac_9 = 0
 t_definition_root_A1_nn_9: root_node_A1_nn_9 = 1 -> indicator_A1_pp_3
   + indicator_A1_nn_3 + indicator_A1_ac_3 + indicator_A1_pp_6
   + indicator_A1_nn_6 + indicator_A1_ac_6 + indicator_A1_pp_9
   + indicator_A1_nn_9 + indicator_A1_ac_9 + indicator_A1_pp_12
   + indicator_A1_nn_12 + indicator_A1_ac_12 + indicator_A1_pp_15
   + indicator_A1_nn_15 + indicator_A1_ac_15 + cap_A1_nn_9 = 1
 t_definition_non_root_A1_nn_9: root_node_A1_nn_9 = 0 ->
   - indicator_A1_nn_9 + cap_A1_nn_9 = 0
 t_definition_root_A1_pp_9: root_node_A1_pp_9 = 1 -> indicator_A1_pp_3
   + indicator_A1_nn_3 + indicator_A1_ac_3 + indicator_A1_pp_6
   + indicator_A1_nn_6 + indicator_A1_ac_6 + indicator_A1_pp_9
   + indicator_A1_nn_9 + indicator_A1_ac_9 + indicator_A1_pp_12
   + indicator_A1_nn_12 + indicator_A1_ac_12 + indicator_A1_pp_15
   + indicator_A1_nn_15 + indicator_A1_ac_15 + cap_A1_pp_9 = 1
 t_definition_non_root_A1_pp_9: root_node_A1_pp_9 = 0 ->
   - indicator_A1_pp_9 + cap_A1_pp_9 = 0
 t_definition_root_A1_ac_12: root_node_A1_ac_12 = 1 -> indicator_A1_pp_3
   + indicator_A1_nn_3 + indicator_A1_ac_3 + indicator_A1_pp_6
   + indicator_A1_nn_6 + indicator_A1_ac_6 + indicator_A1_pp_9
   + indicator_A1_nn_9 + indicator_A1_ac_9 + indicator_A1_pp_12
   + indicator_A1_nn_12 + indicator_A1_ac_12 + indicator_A1_pp_15
   + indicator_A1_nn_15 + indicator_A1_ac_15 + cap_A1_ac_12 = 1
 t_definition_non_root_A1_ac_12: root_node_A1_ac_12 = 0 ->
   - indicator_A1_ac_12 + cap_A1_ac_12 = 0
 t_definition_root_A1_nn_12: root_node_A1_nn_12 = 1 -> indicator_A1_pp_3
   + indicator_A1_nn_3 + indicator_A1_ac_3 + indicator_A1_pp_6
   + indicator_A1_nn_6 + indicator_A1_ac_6 + indicator_A1_pp_9
   + indicator_A1_nn_9 + indicator_A1_ac_9 + indicator_A1_pp_12
   + indicator_A1_nn_12 + indicator_A1_ac_12 + indicator_A1_pp_15
   + indicator_A1_nn_15 + indicator_A1_ac_15 + cap_A1_nn_12 = 1
 t_definition_non_root_A1_nn_12: root_node_A1_nn_12 = 0 ->
   - indicator_A1_nn_12 + cap_A1_nn_12 = 0
 t_definition_root_A1_pp_12: root_node_A1_pp_12 = 1 -> indicator_A1_pp_3
   + indicator_A1_nn_3 + indicator_A1_ac_3 + indicator_A1_pp_6
   + indicator_A1_nn_6 + indicator_A1_ac_6 + indicator_A1_pp_9
   + indicator_A1_nn_9 + indicator_A1_ac_9 + indicator_A1_pp_12
   + indicator_A1_nn_12 + indicator_A1_ac_12 + indicator_A1_pp_15
   + indicator_A1_nn_15 + indicator_A1_ac_15 + cap_A1_pp_12 = 1
 t_definition_non_root_A1_pp_12: root_node_A1_pp_12 = 0 ->
   - indicator_A1_pp_12 + cap_A1_pp_12 = 0
 t_definition_root_A1_ac_15: root_node_A1_ac_15 = 1 -> indicator_A1_pp_3
   + indicator_A1_nn_3 + indicator_A1_ac_3 + indicator_A1_pp_6
   + indicator_A1_nn_6 + indicator_A1_ac_6 + indicator_A1_pp_9
   + indicator_A1_nn_9 + indicator_A1_ac_9 + indicator_A1_pp_12
   + indicator_A1_nn_12 + indicator_A1_ac_12 + indicator_A1_pp_15
   + indicator_A1_nn_15 + indicator_A1_ac_15 + cap_A1_ac_15 = 1
 t_definition_non_root_A1_ac_15: root_node_A1_ac_15 = 0 ->
   - indicator_A1_ac_15 + cap_A1_ac_15 = 0
 t_definition_root_A1_nn_15: root_node_A1_nn_15 = 1 -> indicator_A1_pp_3
   + indicator_A1_nn_3 + indicator_A1_ac_3 + indicator_A1_pp_6
   + indicator_A1_nn_6 + indicator_A1_ac_6 + indicator_A1_pp_9
   + indicator_A1_nn_9 + indicator_A1_ac_9 + indicator_A1_pp_12
   + indicator_A1_nn_12 + indicator_A1_ac_12 + indicator_A1_pp_15
   + indicator_A1_nn_15 + indicator_A1_ac_15 + cap_A1_nn_15 = 1
 t_definition_non_root_A1_nn_15: root_node_A1_nn_15 = 0 ->
   - indicator_A1_nn_15 + cap_A1_nn_15 = 0
 t_definition_root_A1_pp_15: root_node_A1_pp_15 = 1 -> indicator_A1_pp_3
   + indicator_A1_nn_3 + indicator_A1_ac_3 + indicator_A1_pp_6
   + indicator_A1_nn_6 + indicator_A1_ac_6 + indicator_A1_pp_9
   + indicator_A1_nn_9 + indicator_A1_ac_9 + indicator_A1_pp_12
   + indicator_A1_nn_12 + indicator_A1_ac_12 + indicator_A1_pp_15
   + indicator_A1_nn_15 + indicator_A1_ac_15 + cap_A1_pp_15 = 1
 t_definition_non_root_A1_pp_15: root_node_A1_pp_15 = 0 ->
   - indicator_A1_pp_15 + cap_A1_pp_15 = 0
 t_definition_root_ZN_ac_3: root_node_ZN_ac_3 = 1 -> indicator_ZN_pp_3
   + indicator_ZN_nn_3 + indicator_ZN_ac_3 + indicator_ZN_pp_6
   + indicator_ZN_nn_6 + indicator_ZN_ac_6 + indicator_ZN_pp_9
   + indicator_ZN_nn_9 + indicator_ZN_ac_9 + indicator_ZN_pp_12
   + indicator_ZN_nn_12 + indicator_ZN_ac_12 + indicator_ZN_pp_15
   + indicator_ZN_nn_15 + indicator_ZN_ac_15 + cap_ZN_ac_3 = 1
 t_definition_non_root_ZN_ac_3: root_node_ZN_ac_3 = 0 ->
   - indicator_ZN_ac_3 + cap_ZN_ac_3 = 0
 t_definition_root_ZN_nn_3: root_node_ZN_nn_3 = 1 -> indicator_ZN_pp_3
   + indicator_ZN_nn_3 + indicator_ZN_ac_3 + indicator_ZN_pp_6
   + indicator_ZN_nn_6 + indicator_ZN_ac_6 + indicator_ZN_pp_9
   + indicator_ZN_nn_9 + indicator_ZN_ac_9 + indicator_ZN_pp_12
   + indicator_ZN_nn_12 + indicator_ZN_ac_12 + indicator_ZN_pp_15
   + indicator_ZN_nn_15 + indicator_ZN_ac_15 + cap_ZN_nn_3 = 1
 t_definition_non_root_ZN_nn_3: root_node_ZN_nn_3 = 0 ->
   - indicator_ZN_nn_3 + cap_ZN_nn_3 = 0
 t_definition_root_ZN_pp_3: root_node_ZN_pp_3 = 1 -> indicator_ZN_pp_3
   + indicator_ZN_nn_3 + indicator_ZN_ac_3 + indicator_ZN_pp_6
   + indicator_ZN_nn_6 + indicator_ZN_ac_6 + indicator_ZN_pp_9
   + indicator_ZN_nn_9 + indicator_ZN_ac_9 + indicator_ZN_pp_12
   + indicator_ZN_nn_12 + indicator_ZN_ac_12 + indicator_ZN_pp_15
   + indicator_ZN_nn_15 + indicator_ZN_ac_15 + cap_ZN_pp_3 = 1
 t_definition_non_root_ZN_pp_3: root_node_ZN_pp_3 = 0 ->
   - indicator_ZN_pp_3 + cap_ZN_pp_3 = 0
 t_definition_root_ZN_ac_6: root_node_ZN_ac_6 = 1 -> indicator_ZN_pp_3
   + indicator_ZN_nn_3 + indicator_ZN_ac_3 + indicator_ZN_pp_6
   + indicator_ZN_nn_6 + indicator_ZN_ac_6 + indicator_ZN_pp_9
   + indicator_ZN_nn_9 + indicator_ZN_ac_9 + indicator_ZN_pp_12
   + indicator_ZN_nn_12 + indicator_ZN_ac_12 + indicator_ZN_pp_15
   + indicator_ZN_nn_15 + indicator_ZN_ac_15 + cap_ZN_ac_6 = 1
 t_definition_non_root_ZN_ac_6: root_node_ZN_ac_6 = 0 ->
   - indicator_ZN_ac_6 + cap_ZN_ac_6 = 0
 t_definition_root_ZN_nn_6: root_node_ZN_nn_6 = 1 -> indicator_ZN_pp_3
   + indicator_ZN_nn_3 + indicator_ZN_ac_3 + indicator_ZN_pp_6
   + indicator_ZN_nn_6 + indicator_ZN_ac_6 + indicator_ZN_pp_9
   + indicator_ZN_nn_9 + indicator_ZN_ac_9 + indicator_ZN_pp_12
   + indicator_ZN_nn_12 + indicator_ZN_ac_12 + indicator_ZN_pp_15
   + indicator_ZN_nn_15 + indicator_ZN_ac_15 + cap_ZN_nn_6 = 1
 t_definition_non_root_ZN_nn_6: root_node_ZN_nn_6 = 0 ->
   - indicator_ZN_nn_6 + cap_ZN_nn_6 = 0
 t_definition_root_ZN_pp_6: root_node_ZN_pp_6 = 1 -> indicator_ZN_pp_3
   + indicator_ZN_nn_3 + indicator_ZN_ac_3 + indicator_ZN_pp_6
   + indicator_ZN_nn_6 + indicator_ZN_ac_6 + indicator_ZN_pp_9
   + indicator_ZN_nn_9 + indicator_ZN_ac_9 + indicator_ZN_pp_12
   + indicator_ZN_nn_12 + indicator_ZN_ac_12 + indicator_ZN_pp_15
   + indicator_ZN_nn_15 + indicator_ZN_ac_15 + cap_ZN_pp_6 = 1
 t_definition_non_root_ZN_pp_6: root_node_ZN_pp_6 = 0 ->
   - indicator_ZN_pp_6 + cap_ZN_pp_6 = 0
 t_definition_root_ZN_ac_9: root_node_ZN_ac_9 = 1 -> indicator_ZN_pp_3
   + indicator_ZN_nn_3 + indicator_ZN_ac_3 + indicator_ZN_pp_6
   + indicator_ZN_nn_6 + indicator_ZN_ac_6 + indicator_ZN_pp_9
   + indicator_ZN_nn_9 + indicator_ZN_ac_9 + indicator_ZN_pp_12
   + indicator_ZN_nn_12 + indicator_ZN_ac_12 + indicator_ZN_pp_15
   + indicator_ZN_nn_15 + indicator_ZN_ac_15 + cap_ZN_ac_9 = 1
 t_definition_non_root_ZN_ac_9: root_node_ZN_ac_9 = 0 ->
   - indicator_ZN_ac_9 + cap_ZN_ac_9 = 0
 t_definition_root_ZN_nn_9: root_node_ZN_nn_9 = 1 -> indicator_ZN_pp_3
   + indicator_ZN_nn_3 + indicator_ZN_ac_3 + indicator_ZN_pp_6
   + indicator_ZN_nn_6 + indicator_ZN_ac_6 + indicator_ZN_pp_9
   + indicator_ZN_nn_9 + indicator_ZN_ac_9 + indicator_ZN_pp_12
   + indicator_ZN_nn_12 + indicator_ZN_ac_12 + indicator_ZN_pp_15
   + indicator_ZN_nn_15 + indicator_ZN_ac_15 + cap_ZN_nn_9 = 1
 t_definition_non_root_ZN_nn_9: root_node_ZN_nn_9 = 0 ->
   - indicator_ZN_nn_9 + cap_ZN_nn_9 = 0
 t_definition_root_ZN_pp_9: root_node_ZN_pp_9 = 1 -> indicator_ZN_pp_3
   + indicator_ZN_nn_3 + indicator_ZN_ac_3 + indicator_ZN_pp_6
   + indicator_ZN_nn_6 + indicator_ZN_ac_6 + indicator_ZN_pp_9
   + indicator_ZN_nn_9 + indicator_ZN_ac_9 + indicator_ZN_pp_12
   + indicator_ZN_nn_12 + indicator_ZN_ac_12 + indicator_ZN_pp_15
   + indicator_ZN_nn_15 + indicator_ZN_ac_15 + cap_ZN_pp_9 = 1
 t_definition_non_root_ZN_pp_9: root_node_ZN_pp_9 = 0 ->
   - indicator_ZN_pp_9 + cap_ZN_pp_9 = 0
 t_definition_root_ZN_ac_12: root_node_ZN_ac_12 = 1 -> indicator_ZN_pp_3
   + indicator_ZN_nn_3 + indicator_ZN_ac_3 + indicator_ZN_pp_6
   + indicator_ZN_nn_6 + indicator_ZN_ac_6 + indicator_ZN_pp_9
   + indicator_ZN_nn_9 + indicator_ZN_ac_9 + indicator_ZN_pp_12
   + indicator_ZN_nn_12 + indicator_ZN_ac_12 + indicator_ZN_pp_15
   + indicator_ZN_nn_15 + indicator_ZN_ac_15 + cap_ZN_ac_12 = 1
 t_definition_non_root_ZN_ac_12: root_node_ZN_ac_12 = 0 ->
   - indicator_ZN_ac_12 + cap_ZN_ac_12 = 0
 t_definition_root_ZN_nn_12: root_node_ZN_nn_12 = 1 -> indicator_ZN_pp_3
   + indicator_ZN_nn_3 + indicator_ZN_ac_3 + indicator_ZN_pp_6
   + indicator_ZN_nn_6 + indicator_ZN_ac_6 + indicator_ZN_pp_9
   + indicator_ZN_nn_9 + indicator_ZN_ac_9 + indicator_ZN_pp_12
   + indicator_ZN_nn_12 + indicator_ZN_ac_12 + indicator_ZN_pp_15
   + indicator_ZN_nn_15 + indicator_ZN_ac_15 + cap_ZN_nn_12 = 1
 t_definition_non_root_ZN_nn_12: root_node_ZN_nn_12 = 0 ->
   - indicator_ZN_nn_12 + cap_ZN_nn_12 = 0
 t_definition_root_ZN_pp_12: root_node_ZN_pp_12 = 1 -> indicator_ZN_pp_3
   + indicator_ZN_nn_3 + indicator_ZN_ac_3 + indicator_ZN_pp_6
   + indicator_ZN_nn_6 + indicator_ZN_ac_6 + indicator_ZN_pp_9
   + indicator_ZN_nn_9 + indicator_ZN_ac_9 + indicator_ZN_pp_12
   + indicator_ZN_nn_12 + indicator_ZN_ac_12 + indicator_ZN_pp_15
   + indicator_ZN_nn_15 + indicator_ZN_ac_15 + cap_ZN_pp_12 = 1
 t_definition_non_root_ZN_pp_12: root_node_ZN_pp_12 = 0 ->
   - indicator_ZN_pp_12 + cap_ZN_pp_12 = 0
 t_definition_root_ZN_ac_15: root_node_ZN_ac_15 = 1 -> indicator_ZN_pp_3
   + indicator_ZN_nn_3 + indicator_ZN_ac_3 + indicator_ZN_pp_6
   + indicator_ZN_nn_6 + indicator_ZN_ac_6 + indicator_ZN_pp_9
   + indicator_ZN_nn_9 + indicator_ZN_ac_9 + indicator_ZN_pp_12
   + indicator_ZN_nn_12 + indicator_ZN_ac_12 + indicator_ZN_pp_15
   + indicator_ZN_nn_15 + indicator_ZN_ac_15 + cap_ZN_ac_15 = 1
 t_definition_non_root_ZN_ac_15: root_node_ZN_ac_15 = 0 ->
   - indicator_ZN_ac_15 + cap_ZN_ac_15 = 0
 t_definition_root_ZN_nn_15: root_node_ZN_nn_15 = 1 -> indicator_ZN_pp_3
   + indicator_ZN_nn_3 + indicator_ZN_ac_3 + indicator_ZN_pp_6
   + indicator_ZN_nn_6 + indicator_ZN_ac_6 + indicator_ZN_pp_9
   + indicator_ZN_nn_9 + indicator_ZN_ac_9 + indicator_ZN_pp_12
   + indicator_ZN_nn_12 + indicator_ZN_ac_12 + indicator_ZN_pp_15
   + indicator_ZN_nn_15 + indicator_ZN_ac_15 + cap_ZN_nn_15 = 1
 t_definition_non_root_ZN_nn_15: root_node_ZN_nn_15 = 0 ->
   - indicator_ZN_nn_15 + cap_ZN_nn_15 = 0
 t_definition_root_ZN_pp_15: root_node_ZN_pp_15 = 1 -> indicator_ZN_pp_3
   + indicator_ZN_nn_3 + indicator_ZN_ac_3 + indicator_ZN_pp_6
   + indicator_ZN_nn_6 + indicator_ZN_ac_6 + indicator_ZN_pp_9
   + indicator_ZN_nn_9 + indicator_ZN_ac_9 + indicator_ZN_pp_12
   + indicator_ZN_nn_12 + indicator_ZN_ac_12 + indicator_ZN_pp_15
   + indicator_ZN_nn_15 + indicator_ZN_ac_15 + cap_ZN_pp_15 = 1
 t_definition_non_root_ZN_pp_15: root_node_ZN_pp_15 = 0 ->
   - indicator_ZN_pp_15 + cap_ZN_pp_15 = 0
Bounds
 min_indicator_A2 <= 4
 max_bbox_A2 <= 4
 -2 <= f_A2_edge_connector_pv_3_pp_3_co <= 2
 -2 <= f_A2_edge_connector_pv_3_ac_3_co <= 2
 -2 <= f_A2_edge_connector_nv_3_nn_3_co <= 2
 -2 <= f_A2_edge_connector_nv_3_ac_3_co <= 2
 -2 <= f_A2_edge_connector_pv_6_pp_6_co <= 2
 -2 <= f_A2_edge_connector_pv_6_ac_6_co <= 2
 -2 <= f_A2_edge_connector_nv_6_nn_6_co <= 2
 -2 <= f_A2_edge_connector_nv_6_ac_6_co <= 2
 -2 <= f_A2_edge_connector_pv_9_pp_9_co <= 2
 -2 <= f_A2_edge_connector_pv_9_ac_9_co <= 2
 -2 <= f_A2_edge_connector_nv_9_nn_9_co <= 2
 -2 <= f_A2_edge_connector_nv_9_ac_9_co <= 2
 -2 <= f_A2_edge_connector_pv_12_pp_12_co <= 2
 -2 <= f_A2_edge_connector_pv_12_ac_12_co <= 2
 -2 <= f_A2_edge_connector_nv_12_nn_12_co <= 2
 -2 <= f_A2_edge_connector_nv_12_ac_12_co <= 2
 -2 <= f_A2_edge_connector_pv_15_pp_15_co <= 2
 -2 <= f_A2_edge_connector_pv_15_ac_15_co <= 2
 -2 <= f_A2_edge_connector_nv_15_nn_15_co <= 2
 -2 <= f_A2_edge_connector_nv_15_ac_15_co <= 2
 -2 <= f_A2_edge_pv_3_pv_4_3 <= 2
 -2 <= f_A2_edge_pv_3_pv_4_2 <= 2
 -2 <= f_A2_edge_nv_3_nv_4_1 <= 2
 -2 <= f_A2_edge_nv_3_nv_4_0 <= 2
 -2 <= f_A2_edge_pv_4_pv_6_3 <= 2
 -2 <= f_A2_edge_pv_4_pv_6_2 <= 2
 -2 <= f_A2_edge_nv_4_nv_6_1 <= 2
 -2 <= f_A2_edge_nv_4_nv_6_0 <= 2
 -2 <= f_A2_edge_pv_6_pv_8_3 <= 2
 -2 <= f_A2_edge_pv_6_pv_8_2 <= 2
 -2 <= f_A2_edge_nv_6_nv_8_1 <= 2
 -2 <= f_A2_edge_nv_6_nv_8_0 <= 2
 -2 <= f_A2_edge_pv_8_pv_9_3 <= 2
 -2 <= f_A2_edge_pv_8_pv_9_2 <= 2
 -2 <= f_A2_edge_nv_8_nv_9_1 <= 2
 -2 <= f_A2_edge_nv_8_nv_9_0 <= 2
 -2 <= f_A2_edge_pv_9_pv_12_3 <= 2
 -2 <= f_A2_edge_pv_9_pv_12_2 <= 2
 -2 <= f_A2_edge_nv_9_nv_12_1 <= 2
 -2 <= f_A2_edge_nv_9_nv_12_0 <= 2
 -2 <= f_A2_edge_pv_12_pv_15_3 <= 2
 -2 <= f_A2_edge_pv_12_pv_15_2 <= 2
 -2 <= f_A2_edge_nv_12_nv_15_1 <= 2
 -2 <= f_A2_edge_nv_12_nv_15_0 <= 2
 -2 <= f_A2_edge_via_enable_m1_4_pv_4 <= 2
 -2 <= f_A2_edge_via_enable_m1_4_nv_4 <= 2
 -2 <= f_A2_edge_m1_4_m1_8_r_7 <= 2
 -2 <= f_A2_edge_m1_4_m1_8_r_6 <= 2
 -2 <= f_A2_edge_m1_4_m1_8_r_5 <= 2
 -2 <= f_A2_edge_m1_4_m1_8_r_4 <= 2
 -2 <= f_A2_edge_via_enable_m1_8_pv_8 <= 2
 -2 <= f_A2_edge_via_enable_m1_8_nv_8 <= 2
 -2 <= f_A2_edge_m1_8_m1_12_r_7 <= 2
 -2 <= f_A2_edge_m1_8_m1_12_r_6 <= 2
 -2 <= f_A2_edge_m1_8_m1_12_r_5 <= 2
 -2 <= f_A2_edge_m1_8_m1_12_r_4 <= 2
 -2 <= f_A2_edge_via_enable_m1_12_pv_12 <= 2
 -2 <= f_A2_edge_via_enable_m1_12_nv_12 <= 2
 -2 <= cap_A2_ac_3 <= 1
 -2 <= cap_A2_nn_3 <= 1
 -2 <= cap_A2_nv_3 <= 1
 -2 <= cap_A2_pp_3 <= 1
 -2 <= cap_A2_pv_3 <= 1
 -2 <= cap_A2_m1_4 <= 1
 -2 <= cap_A2_nv_4 <= 1
 -2 <= cap_A2_pv_4 <= 1
 -2 <= cap_A2_ac_6 <= 1
 -2 <= cap_A2_nn_6 <= 1
 -2 <= cap_A2_nv_6 <= 1
 -2 <= cap_A2_pp_6 <= 1
 -2 <= cap_A2_pv_6 <= 1
 -2 <= cap_A2_m1_8 <= 1
 -2 <= cap_A2_nv_8 <= 1
 -2 <= cap_A2_pv_8 <= 1
 -2 <= cap_A2_ac_9 <= 1
 -2 <= cap_A2_nn_9 <= 1
 -2 <= cap_A2_nv_9 <= 1
 -2 <= cap_A2_pp_9 <= 1
 -2 <= cap_A2_pv_9 <= 1
 -2 <= cap_A2_ac_12 <= 1
 -2 <= cap_A2_m1_12 <= 1
 -2 <= cap_A2_nn_12 <= 1
 -2 <= cap_A2_nv_12 <= 1
 -2 <= cap_A2_pp_12 <= 1
 -2 <= cap_A2_pv_12 <= 1
 -2 <= cap_A2_ac_15 <= 1
 -2 <= cap_A2_nn_15 <= 1
 -2 <= cap_A2_nv_15 <= 1
 -2 <= cap_A2_pp_15 <= 1
 -2 <= cap_A2_pv_15 <= 1
 min_indicator_net16 <= 4
 max_bbox_net16 <= 4
 -1 <= f_net16_edge_connector_pv_3_pp_3_co <= 1
 -1 <= f_net16_edge_connector_pv_3_ac_3_co <= 1
 -1 <= f_net16_edge_connector_nv_3_nn_3_co <= 1
 -1 <= f_net16_edge_connector_nv_3_ac_3_co <= 1
 -1 <= f_net16_edge_connector_pv_6_pp_6_co <= 1
 -1 <= f_net16_edge_connector_pv_6_ac_6_co <= 1
 -1 <= f_net16_edge_connector_nv_6_nn_6_co <= 1
 -1 <= f_net16_edge_connector_nv_6_ac_6_co <= 1
 -1 <= f_net16_edge_connector_pv_9_pp_9_co <= 1
 -1 <= f_net16_edge_connector_pv_9_ac_9_co <= 1
 -1 <= f_net16_edge_connector_nv_9_nn_9_co <= 1
 -1 <= f_net16_edge_connector_nv_9_ac_9_co <= 1
 -1 <= f_net16_edge_connector_pv_12_pp_12_co <= 1
 -1 <= f_net16_edge_connector_pv_12_ac_12_co <= 1
 -1 <= f_net16_edge_connector_nv_12_nn_12_co <= 1
 -1 <= f_net16_edge_connector_nv_12_ac_12_co <= 1
 -1 <= f_net16_edge_connector_pv_15_pp_15_co <= 1
 -1 <= f_net16_edge_connector_pv_15_ac_15_co <= 1
 -1 <= f_net16_edge_connector_nv_15_nn_15_co <= 1
 -1 <= f_net16_edge_connector_nv_15_ac_15_co <= 1
 -1 <= f_net16_edge_pv_3_pv_4_3 <= 1
 -1 <= f_net16_edge_pv_3_pv_4_2 <= 1
 -1 <= f_net16_edge_nv_3_nv_4_1 <= 1
 -1 <= f_net16_edge_nv_3_nv_4_0 <= 1
 -1 <= f_net16_edge_pv_4_pv_6_3 <= 1
 -1 <= f_net16_edge_pv_4_pv_6_2 <= 1
 -1 <= f_net16_edge_nv_4_nv_6_1 <= 1
 -1 <= f_net16_edge_nv_4_nv_6_0 <= 1
 -1 <= f_net16_edge_pv_6_pv_8_3 <= 1
 -1 <= f_net16_edge_pv_6_pv_8_2 <= 1
 -1 <= f_net16_edge_nv_6_nv_8_1 <= 1
 -1 <= f_net16_edge_nv_6_nv_8_0 <= 1
 -1 <= f_net16_edge_pv_8_pv_9_3 <= 1
 -1 <= f_net16_edge_pv_8_pv_9_2 <= 1
 -1 <= f_net16_edge_nv_8_nv_9_1 <= 1
 -1 <= f_net16_edge_nv_8_nv_9_0 <= 1
 -1 <= f_net16_edge_pv_9_pv_12_3 <= 1
 -1 <= f_net16_edge_pv_9_pv_12_2 <= 1
 -1 <= f_net16_edge_nv_9_nv_12_1 <= 1
 -1 <= f_net16_edge_nv_9_nv_12_0 <= 1
 -1 <= f_net16_edge_pv_12_pv_15_3 <= 1
 -1 <= f_net16_edge_pv_12_pv_15_2 <= 1
 -1 <= f_net16_edge_nv_12_nv_15_1 <= 1
 -1 <= f_net16_edge_nv_12_nv_15_0 <= 1
 -1 <= f_net16_edge_via_enable_m1_4_pv_4 <= 1
 -1 <= f_net16_edge_via_enable_m1_4_nv_4 <= 1
 -1 <= f_net16_edge_m1_4_m1_8_r_7 <= 1
 -1 <= f_net16_edge_m1_4_m1_8_r_6 <= 1
 -1 <= f_net16_edge_m1_4_m1_8_r_5 <= 1
 -1 <= f_net16_edge_m1_4_m1_8_r_4 <= 1
 -1 <= f_net16_edge_via_enable_m1_8_pv_8 <= 1
 -1 <= f_net16_edge_via_enable_m1_8_nv_8 <= 1
 -1 <= f_net16_edge_m1_8_m1_12_r_7 <= 1
 -1 <= f_net16_edge_m1_8_m1_12_r_6 <= 1
 -1 <= f_net16_edge_m1_8_m1_12_r_5 <= 1
 -1 <= f_net16_edge_m1_8_m1_12_r_4 <= 1
 -1 <= f_net16_edge_via_enable_m1_12_pv_12 <= 1
 -1 <= f_net16_edge_via_enable_m1_12_nv_12 <= 1
 -1 <= cap_net16_ac_3 <= 1
 -1 <= cap_net16_nn_3 <= 1
 -1 <= cap_net16_nv_3 <= 1
 -1 <= cap_net16_pp_3 <= 1
 -1 <= cap_net16_pv_3 <= 1
 -1 <= cap_net16_m1_4 <= 1
 -1 <= cap_net16_nv_4 <= 1
 -1 <= cap_net16_pv_4 <= 1
 -1 <= cap_net16_ac_6 <= 1
 -1 <= cap_net16_nn_6 <= 1
 -1 <= cap_net16_nv_6 <= 1
 -1 <= cap_net16_pp_6 <= 1
 -1 <= cap_net16_pv_6 <= 1
 -1 <= cap_net16_m1_8 <= 1
 -1 <= cap_net16_nv_8 <= 1
 -1 <= cap_net16_pv_8 <= 1
 -1 <= cap_net16_ac_9 <= 1
 -1 <= cap_net16_nn_9 <= 1
 -1 <= cap_net16_nv_9 <= 1
 -1 <= cap_net16_pp_9 <= 1
 -1 <= cap_net16_pv_9 <= 1
 -1 <= cap_net16_ac_12 <= 1
 -1 <= cap_net16_m1_12 <= 1
 -1 <= cap_net16_nn_12 <= 1
 -1 <= cap_net16_nv_12 <= 1
 -1 <= cap_net16_pp_12 <= 1
 -1 <= cap_net16_pv_12 <= 1
 -1 <= cap_net16_ac_15 <= 1
 -1 <= cap_net16_nn_15 <= 1
 -1 <= cap_net16_nv_15 <= 1
 -1 <= cap_net16_pp_15 <= 1
 -1 <= cap_net16_pv_15 <= 1
 min_indicator_A1 <= 4
 max_bbox_A1 <= 4
 -2 <= f_A1_edge_connector_pv_3_pp_3_co <= 2
 -2 <= f_A1_edge_connector_pv_3_ac_3_co <= 2
 -2 <= f_A1_edge_connector_nv_3_nn_3_co <= 2
 -2 <= f_A1_edge_connector_nv_3_ac_3_co <= 2
 -2 <= f_A1_edge_connector_pv_6_pp_6_co <= 2
 -2 <= f_A1_edge_connector_pv_6_ac_6_co <= 2
 -2 <= f_A1_edge_connector_nv_6_nn_6_co <= 2
 -2 <= f_A1_edge_connector_nv_6_ac_6_co <= 2
 -2 <= f_A1_edge_connector_pv_9_pp_9_co <= 2
 -2 <= f_A1_edge_connector_pv_9_ac_9_co <= 2
 -2 <= f_A1_edge_connector_nv_9_nn_9_co <= 2
 -2 <= f_A1_edge_connector_nv_9_ac_9_co <= 2
 -2 <= f_A1_edge_connector_pv_12_pp_12_co <= 2
 -2 <= f_A1_edge_connector_pv_12_ac_12_co <= 2
 -2 <= f_A1_edge_connector_nv_12_nn_12_co <= 2
 -2 <= f_A1_edge_connector_nv_12_ac_12_co <= 2
 -2 <= f_A1_edge_connector_pv_15_pp_15_co <= 2
 -2 <= f_A1_edge_connector_pv_15_ac_15_co <= 2
 -2 <= f_A1_edge_connector_nv_15_nn_15_co <= 2
 -2 <= f_A1_edge_connector_nv_15_ac_15_co <= 2
 -2 <= f_A1_edge_pv_3_pv_4_3 <= 2
 -2 <= f_A1_edge_pv_3_pv_4_2 <= 2
 -2 <= f_A1_edge_nv_3_nv_4_1 <= 2
 -2 <= f_A1_edge_nv_3_nv_4_0 <= 2
 -2 <= f_A1_edge_pv_4_pv_6_3 <= 2
 -2 <= f_A1_edge_pv_4_pv_6_2 <= 2
 -2 <= f_A1_edge_nv_4_nv_6_1 <= 2
 -2 <= f_A1_edge_nv_4_nv_6_0 <= 2
 -2 <= f_A1_edge_pv_6_pv_8_3 <= 2
 -2 <= f_A1_edge_pv_6_pv_8_2 <= 2
 -2 <= f_A1_edge_nv_6_nv_8_1 <= 2
 -2 <= f_A1_edge_nv_6_nv_8_0 <= 2
 -2 <= f_A1_edge_pv_8_pv_9_3 <= 2
 -2 <= f_A1_edge_pv_8_pv_9_2 <= 2
 -2 <= f_A1_edge_nv_8_nv_9_1 <= 2
 -2 <= f_A1_edge_nv_8_nv_9_0 <= 2
 -2 <= f_A1_edge_pv_9_pv_12_3 <= 2
 -2 <= f_A1_edge_pv_9_pv_12_2 <= 2
 -2 <= f_A1_edge_nv_9_nv_12_1 <= 2
 -2 <= f_A1_edge_nv_9_nv_12_0 <= 2
 -2 <= f_A1_edge_pv_12_pv_15_3 <= 2
 -2 <= f_A1_edge_pv_12_pv_15_2 <= 2
 -2 <= f_A1_edge_nv_12_nv_15_1 <= 2
 -2 <= f_A1_edge_nv_12_nv_15_0 <= 2
 -2 <= f_A1_edge_via_enable_m1_4_pv_4 <= 2
 -2 <= f_A1_edge_via_enable_m1_4_nv_4 <= 2
 -2 <= f_A1_edge_m1_4_m1_8_r_7 <= 2
 -2 <= f_A1_edge_m1_4_m1_8_r_6 <= 2
 -2 <= f_A1_edge_m1_4_m1_8_r_5 <= 2
 -2 <= f_A1_edge_m1_4_m1_8_r_4 <= 2
 -2 <= f_A1_edge_via_enable_m1_8_pv_8 <= 2
 -2 <= f_A1_edge_via_enable_m1_8_nv_8 <= 2
 -2 <= f_A1_edge_m1_8_m1_12_r_7 <= 2
 -2 <= f_A1_edge_m1_8_m1_12_r_6 <= 2
 -2 <= f_A1_edge_m1_8_m1_12_r_5 <= 2
 -2 <= f_A1_edge_m1_8_m1_12_r_4 <= 2
 -2 <= f_A1_edge_via_enable_m1_12_pv_12 <= 2
 -2 <= f_A1_edge_via_enable_m1_12_nv_12 <= 2
 -2 <= cap_A1_ac_3 <= 1
 -2 <= cap_A1_nn_3 <= 1
 -2 <= cap_A1_nv_3 <= 1
 -2 <= cap_A1_pp_3 <= 1
 -2 <= cap_A1_pv_3 <= 1
 -2 <= cap_A1_m1_4 <= 1
 -2 <= cap_A1_nv_4 <= 1
 -2 <= cap_A1_pv_4 <= 1
 -2 <= cap_A1_ac_6 <= 1
 -2 <= cap_A1_nn_6 <= 1
 -2 <= cap_A1_nv_6 <= 1
 -2 <= cap_A1_pp_6 <= 1
 -2 <= cap_A1_pv_6 <= 1
 -2 <= cap_A1_m1_8 <= 1
 -2 <= cap_A1_nv_8 <= 1
 -2 <= cap_A1_pv_8 <= 1
 -2 <= cap_A1_ac_9 <= 1
 -2 <= cap_A1_nn_9 <= 1
 -2 <= cap_A1_nv_9 <= 1
 -2 <= cap_A1_pp_9 <= 1
 -2 <= cap_A1_pv_9 <= 1
 -2 <= cap_A1_ac_12 <= 1
 -2 <= cap_A1_m1_12 <= 1
 -2 <= cap_A1_nn_12 <= 1
 -2 <= cap_A1_nv_12 <= 1
 -2 <= cap_A1_pp_12 <= 1
 -2 <= cap_A1_pv_12 <= 1
 -2 <= cap_A1_ac_15 <= 1
 -2 <= cap_A1_nn_15 <= 1
 -2 <= cap_A1_nv_15 <= 1
 -2 <= cap_A1_pp_15 <= 1
 -2 <= cap_A1_pv_15 <= 1
 min_indicator_ZN <= 4
 max_bbox_ZN <= 4
 -2 <= f_ZN_edge_connector_pv_3_pp_3_co <= 2
 -2 <= f_ZN_edge_connector_pv_3_ac_3_co <= 2
 -2 <= f_ZN_edge_connector_nv_3_nn_3_co <= 2
 -2 <= f_ZN_edge_connector_nv_3_ac_3_co <= 2
 -2 <= f_ZN_edge_connector_pv_6_pp_6_co <= 2
 -2 <= f_ZN_edge_connector_pv_6_ac_6_co <= 2
 -2 <= f_ZN_edge_connector_nv_6_nn_6_co <= 2
 -2 <= f_ZN_edge_connector_nv_6_ac_6_co <= 2
 -2 <= f_ZN_edge_connector_pv_9_pp_9_co <= 2
 -2 <= f_ZN_edge_connector_pv_9_ac_9_co <= 2
 -2 <= f_ZN_edge_connector_nv_9_nn_9_co <= 2
 -2 <= f_ZN_edge_connector_nv_9_ac_9_co <= 2
 -2 <= f_ZN_edge_connector_pv_12_pp_12_co <= 2
 -2 <= f_ZN_edge_connector_pv_12_ac_12_co <= 2
 -2 <= f_ZN_edge_connector_nv_12_nn_12_co <= 2
 -2 <= f_ZN_edge_connector_nv_12_ac_12_co <= 2
 -2 <= f_ZN_edge_connector_pv_15_pp_15_co <= 2
 -2 <= f_ZN_edge_connector_pv_15_ac_15_co <= 2
 -2 <= f_ZN_edge_connector_nv_15_nn_15_co <= 2
 -2 <= f_ZN_edge_connector_nv_15_ac_15_co <= 2
 -2 <= f_ZN_edge_pv_3_pv_4_3 <= 2
 -2 <= f_ZN_edge_pv_3_pv_4_2 <= 2
 -2 <= f_ZN_edge_nv_3_nv_4_1 <= 2
 -2 <= f_ZN_edge_nv_3_nv_4_0 <= 2
 -2 <= f_ZN_edge_pv_4_pv_6_3 <= 2
 -2 <= f_ZN_edge_pv_4_pv_6_2 <= 2
 -2 <= f_ZN_edge_nv_4_nv_6_1 <= 2
 -2 <= f_ZN_edge_nv_4_nv_6_0 <= 2
 -2 <= f_ZN_edge_pv_6_pv_8_3 <= 2
 -2 <= f_ZN_edge_pv_6_pv_8_2 <= 2
 -2 <= f_ZN_edge_nv_6_nv_8_1 <= 2
 -2 <= f_ZN_edge_nv_6_nv_8_0 <= 2
 -2 <= f_ZN_edge_pv_8_pv_9_3 <= 2
 -2 <= f_ZN_edge_pv_8_pv_9_2 <= 2
 -2 <= f_ZN_edge_nv_8_nv_9_1 <= 2
 -2 <= f_ZN_edge_nv_8_nv_9_0 <= 2
 -2 <= f_ZN_edge_pv_9_pv_12_3 <= 2
 -2 <= f_ZN_edge_pv_9_pv_12_2 <= 2
 -2 <= f_ZN_edge_nv_9_nv_12_1 <= 2
 -2 <= f_ZN_edge_nv_9_nv_12_0 <= 2
 -2 <= f_ZN_edge_pv_12_pv_15_3 <= 2
 -2 <= f_ZN_edge_pv_12_pv_15_2 <= 2
 -2 <= f_ZN_edge_nv_12_nv_15_1 <= 2
 -2 <= f_ZN_edge_nv_12_nv_15_0 <= 2
 -2 <= f_ZN_edge_via_enable_m1_4_pv_4 <= 2
 -2 <= f_ZN_edge_via_enable_m1_4_nv_4 <= 2
 -2 <= f_ZN_edge_m1_4_m1_8_r_7 <= 2
 -2 <= f_ZN_edge_m1_4_m1_8_r_6 <= 2
 -2 <= f_ZN_edge_m1_4_m1_8_r_5 <= 2
 -2 <= f_ZN_edge_m1_4_m1_8_r_4 <= 2
 -2 <= f_ZN_edge_via_enable_m1_8_pv_8 <= 2
 -2 <= f_ZN_edge_via_enable_m1_8_nv_8 <= 2
 -2 <= f_ZN_edge_m1_8_m1_12_r_7 <= 2
 -2 <= f_ZN_edge_m1_8_m1_12_r_6 <= 2
 -2 <= f_ZN_edge_m1_8_m1_12_r_5 <= 2
 -2 <= f_ZN_edge_m1_8_m1_12_r_4 <= 2
 -2 <= f_ZN_edge_via_enable_m1_12_pv_12 <= 2
 -2 <= f_ZN_edge_via_enable_m1_12_nv_12 <= 2
 -2 <= cap_ZN_ac_3 <= 1
 -2 <= cap_ZN_nn_3 <= 1
 -2 <= cap_ZN_nv_3 <= 1
 -2 <= cap_ZN_pp_3 <= 1
 -2 <= cap_ZN_pv_3 <= 1
 -2 <= cap_ZN_m1_4 <= 1
 -2 <= cap_ZN_nv_4 <= 1
 -2 <= cap_ZN_pv_4 <= 1
 -2 <= cap_ZN_ac_6 <= 1
 -2 <= cap_ZN_nn_6 <= 1
 -2 <= cap_ZN_nv_6 <= 1
 -2 <= cap_ZN_pp_6 <= 1
 -2 <= cap_ZN_pv_6 <= 1
 -2 <= cap_ZN_m1_8 <= 1
 -2 <= cap_ZN_nv_8 <= 1
 -2 <= cap_ZN_pv_8 <= 1
 -2 <= cap_ZN_ac_9 <= 1
 -2 <= cap_ZN_nn_9 <= 1
 -2 <= cap_ZN_nv_9 <= 1
 -2 <= cap_ZN_pp_9 <= 1
 -2 <= cap_ZN_pv_9 <= 1
 -2 <= cap_ZN_ac_12 <= 1
 -2 <= cap_ZN_m1_12 <= 1
 -2 <= cap_ZN_nn_12 <= 1
 -2 <= cap_ZN_nv_12 <= 1
 -2 <= cap_ZN_pp_12 <= 1
 -2 <= cap_ZN_pv_12 <= 1
 -2 <= cap_ZN_ac_15 <= 1
 -2 <= cap_ZN_nn_15 <= 1
 -2 <= cap_ZN_nv_15 <= 1
 -2 <= cap_ZN_pp_15 <= 1
 -2 <= cap_ZN_pv_15 <= 1
Binaries
 c_top_MM1_c1_o0 c_top_MM1_c1_o1 c_top_MM1_c3_o0 c_top_MM1_c3_o1
 c_top_MM0_c1_o0 c_top_MM0_c1_o1 c_top_MM0_c3_o0 c_top_MM0_c3_o1
 pmos_net_A2_c0 pmos_net_dummy_c0 pmos_net_VDD_c0 pmos_net_A1_c0
 pmos_net_ZN_c0 pmos_net_A2_c1 pmos_net_dummy_c1 pmos_net_VDD_c1
 pmos_net_A1_c1 pmos_net_ZN_c1 pmos_net_A2_c2 pmos_net_dummy_c2
 pmos_net_VDD_c2 pmos_net_A1_c2 pmos_net_ZN_c2 pmos_net_A2_c3
 pmos_net_dummy_c3 pmos_net_VDD_c3 pmos_net_A1_c3 pmos_net_ZN_c3
 pmos_net_A2_c4 pmos_net_dummy_c4 pmos_net_VDD_c4 pmos_net_A1_c4
 pmos_net_ZN_c4 c_bot_MM3_c1_o0 c_bot_MM3_c1_o1 c_bot_MM3_c3_o0
 c_bot_MM3_c3_o1 c_bot_MM2_c1_o0 c_bot_MM2_c1_o1 c_bot_MM2_c3_o0
 c_bot_MM2_c3_o1 nmos_net_A2_c0 nmos_net_VSS_c0 nmos_net_net16_c0
 nmos_net_dummy_c0 nmos_net_A1_c0 nmos_net_ZN_c0 nmos_net_A2_c1
 nmos_net_VSS_c1 nmos_net_net16_c1 nmos_net_dummy_c1 nmos_net_A1_c1
 nmos_net_ZN_c1 nmos_net_A2_c2 nmos_net_VSS_c2 nmos_net_net16_c2
 nmos_net_dummy_c2 nmos_net_A1_c2 nmos_net_ZN_c2 nmos_net_A2_c3
 nmos_net_VSS_c3 nmos_net_net16_c3 nmos_net_dummy_c3 nmos_net_A1_c3
 nmos_net_ZN_c3 nmos_net_A2_c4 nmos_net_VSS_c4 nmos_net_net16_c4
 nmos_net_dummy_c4 nmos_net_A1_c4 nmos_net_ZN_c4 misalign_c1
 temp_misalign_c1 dummayallign_c1 dummy_or_misalign_c1 temp_misalign_net_c1
 temp_misalign_net_c1 temp_misalign_net_c1 misalign_c3 temp_misalign_c3
 dummayallign_c3 dummy_or_misalign_c3 temp_misalign_net_c3
 temp_misalign_net_c3 temp_misalign_net_c3 a_net_A2_col1_left
 a_net_A1_col1_left a_net_ZN_col1_left b_net_A2_col1_left
 b_net_net16_col1_left b_net_A1_col1_left b_net_ZN_col1_left
 a_net_A2_col3_left a_net_A1_col3_left a_net_ZN_col3_left
 b_net_A2_col3_left b_net_net16_col3_left b_net_A1_col3_left
 b_net_ZN_col3_left a_net_A2_col1_right a_net_A1_col1_right
 a_net_ZN_col1_right b_net_A2_col1_right b_net_net16_col1_right
 b_net_A1_col1_right b_net_ZN_col1_right a_net_A2_col3_right
 a_net_A1_col3_right a_net_ZN_col3_right b_net_A2_col3_right
 b_net_net16_col3_right b_net_A1_col3_right b_net_ZN_col3_right
 a_ZN_col1_final b_ZN_col1_final a_ZN_col3_final b_ZN_col3_final
 e_net_A2_col1 left_A2_exist_1 right_A2_exist_1 e_net_net16_col1
 left_net16_exist_1 right_net16_exist_1 e_net_A1_col1 left_A1_exist_1
 right_A1_exist_1 e_net_ZN_col1 left_ZN_exist_1 right_ZN_exist_1
 e_net_A2_col3 left_A2_exist_3 right_A2_exist_3 e_net_net16_col3
 left_net16_exist_3 right_net16_exist_3 e_net_A1_col3 left_A1_exist_3
 right_A1_exist_3 e_net_ZN_col3 left_ZN_exist_3 right_ZN_exist_3
 t_eol_c_r[0,3] t_eol_c_r[0,2] t_eol_c_r[0,1] t_eol_c_r[0,0] t_eol_c_r[1,3]
 t_eol_c_r[1,2] t_eol_c_r[1,1] t_eol_c_r[1,0] t_eol_c_r[2,3] t_eol_c_r[2,2]
 t_eol_c_r[2,1] t_eol_c_r[2,0] t_eol_c_r[3,3] t_eol_c_r[3,2] t_eol_c_r[3,1]
 t_eol_c_r[3,0] t_eol_c_r[4,3] t_eol_c_r[4,2] t_eol_c_r[4,1] t_eol_c_r[4,0]
 ut_eol_c_r[0,7] ut_eol_c_r[0,6] ut_eol_c_r[0,5] ut_eol_c_r[0,4]
 ut_eol_c_r[1,7] ut_eol_c_r[1,6] ut_eol_c_r[1,5] ut_eol_c_r[1,4]
 ut_eol_c_r[2,7] ut_eol_c_r[2,6] ut_eol_c_r[2,5] ut_eol_c_r[2,4]
 ut_eol_c_r[3,7] ut_eol_c_r[3,6] ut_eol_c_r[3,5] ut_eol_c_r[3,4]
 ut_eol_c_r[4,7] ut_eol_c_r[4,6] ut_eol_c_r[4,5] ut_eol_c_r[4,4]
 t_A2_c_r[0,3] t_A2_c_r[0,2] t_A2_c_r[0,1] t_A2_c_r[0,0] t_A2_c_r[1,3]
 t_A2_c_r[1,2] t_A2_c_r[1,1] t_A2_c_r[1,0] t_A2_c_r[2,3] t_A2_c_r[2,2]
 t_A2_c_r[2,1] t_A2_c_r[2,0] t_A2_c_r[3,3] t_A2_c_r[3,2] t_A2_c_r[3,1]
 t_A2_c_r[3,0] t_A2_c_r[4,3] t_A2_c_r[4,2] t_A2_c_r[4,1] t_A2_c_r[4,0]
 v_A2_v[0] v_A2_v[1] v_A2_v[2] ut_A2_c_r[0,7] ut_A2_c_r[0,6] ut_A2_c_r[0,5]
 ut_A2_c_r[0,4] ut_A2_c_r[1,7] ut_A2_c_r[1,6] ut_A2_c_r[1,5] ut_A2_c_r[1,4]
 ut_A2_c_r[2,7] ut_A2_c_r[2,6] ut_A2_c_r[2,5] ut_A2_c_r[2,4] ut_A2_c_r[3,7]
 ut_A2_c_r[3,6] ut_A2_c_r[3,5] ut_A2_c_r[3,4] ut_A2_c_r[4,7] ut_A2_c_r[4,6]
 ut_A2_c_r[4,5] ut_A2_c_r[4,4] indicator_A2_pp_3 indicator_A2_nn_3
 indicator_A2_ac_3 root_node_A2_pp_3 root_node_A2_nn_3 root_node_A2_ac_3
 max_indicator_A2_pp_3 max_indicator_A2_nn_3 max_indicator_A2_ac_3
 indicator_A2_pp_6 indicator_A2_nn_6 indicator_A2_ac_6 root_node_A2_pp_6
 root_node_A2_nn_6 root_node_A2_ac_6 max_indicator_A2_pp_6
 max_indicator_A2_nn_6 max_indicator_A2_ac_6 indicator_A2_pp_9
 indicator_A2_nn_9 indicator_A2_ac_9 root_node_A2_pp_9 root_node_A2_nn_9
 root_node_A2_ac_9 max_indicator_A2_pp_9 max_indicator_A2_nn_9
 max_indicator_A2_ac_9 indicator_A2_pp_12 indicator_A2_nn_12
 indicator_A2_ac_12 root_node_A2_pp_12 root_node_A2_nn_12
 root_node_A2_ac_12 max_indicator_A2_pp_12 max_indicator_A2_nn_12
 max_indicator_A2_ac_12 indicator_A2_pp_15 indicator_A2_nn_15
 indicator_A2_ac_15 root_node_A2_pp_15 root_node_A2_nn_15
 root_node_A2_ac_15 max_indicator_A2_pp_15 max_indicator_A2_nn_15
 max_indicator_A2_ac_15 io_detector_A2 y_A2_edge_connector_pv_3_pp_3_co
 y_A2_edge_connector_pv_3_ac_3_co y_A2_edge_connector_nv_3_nn_3_co
 y_A2_edge_connector_nv_3_ac_3_co y_A2_edge_connector_pv_6_pp_6_co
 y_A2_edge_connector_pv_6_ac_6_co y_A2_edge_connector_nv_6_nn_6_co
 y_A2_edge_connector_nv_6_ac_6_co y_A2_edge_connector_pv_9_pp_9_co
 y_A2_edge_connector_pv_9_ac_9_co y_A2_edge_connector_nv_9_nn_9_co
 y_A2_edge_connector_nv_9_ac_9_co y_A2_edge_connector_pv_12_pp_12_co
 y_A2_edge_connector_pv_12_ac_12_co y_A2_edge_connector_nv_12_nn_12_co
 y_A2_edge_connector_nv_12_ac_12_co y_A2_edge_connector_pv_15_pp_15_co
 y_A2_edge_connector_pv_15_ac_15_co y_A2_edge_connector_nv_15_nn_15_co
 y_A2_edge_connector_nv_15_ac_15_co c_mar_row_A2_pp_3_r[3]
 c_mar_row_A2_pp_3_r[2] c_mar_row_A2_pp_3_3_case[0]
 c_mar_row_A2_pp_3_2_case[0] c_mar_row_A2_nn_3_r[1] c_mar_row_A2_nn_3_r[0]
 c_mar_row_A2_nn_3_1_case[0] c_mar_row_A2_nn_3_0_case[0]
 c_mar_row_A2_ac_3_r[3] c_mar_row_A2_ac_3_r[2] c_mar_row_A2_ac_3_r[1]
 c_mar_row_A2_ac_3_r[0] c_mar_row_A2_ac_3_3_case[0]
 c_mar_row_A2_ac_3_2_case[0] c_mar_row_A2_ac_3_1_case[0]
 c_mar_row_A2_ac_3_0_case[0] c_mar_row_A2_pp_6_r[3] c_mar_row_A2_pp_6_r[2]
 c_mar_row_A2_pp_6_3_case[0] c_mar_row_A2_pp_6_3_case[1]
 c_mar_row_A2_pp_6_2_case[0] c_mar_row_A2_pp_6_2_case[1]
 c_mar_row_A2_nn_6_r[1] c_mar_row_A2_nn_6_r[0] c_mar_row_A2_nn_6_1_case[0]
 c_mar_row_A2_nn_6_1_case[1] c_mar_row_A2_nn_6_0_case[0]
 c_mar_row_A2_nn_6_0_case[1] c_mar_row_A2_ac_6_r[3] c_mar_row_A2_ac_6_r[2]
 c_mar_row_A2_ac_6_r[1] c_mar_row_A2_ac_6_r[0] c_mar_row_A2_ac_6_3_case[0]
 c_mar_row_A2_ac_6_3_case[1] c_mar_row_A2_ac_6_2_case[0]
 c_mar_row_A2_ac_6_2_case[1] c_mar_row_A2_ac_6_1_case[0]
 c_mar_row_A2_ac_6_1_case[1] c_mar_row_A2_ac_6_0_case[0]
 c_mar_row_A2_ac_6_0_case[1] c_mar_row_A2_pp_9_r[3] c_mar_row_A2_pp_9_r[2]
 c_mar_row_A2_pp_9_3_case[0] c_mar_row_A2_pp_9_3_case[1]
 c_mar_row_A2_pp_9_2_case[0] c_mar_row_A2_pp_9_2_case[1]
 c_mar_row_A2_nn_9_r[1] c_mar_row_A2_nn_9_r[0] c_mar_row_A2_nn_9_1_case[0]
 c_mar_row_A2_nn_9_1_case[1] c_mar_row_A2_nn_9_0_case[0]
 c_mar_row_A2_nn_9_0_case[1] c_mar_row_A2_ac_9_r[3] c_mar_row_A2_ac_9_r[2]
 c_mar_row_A2_ac_9_r[1] c_mar_row_A2_ac_9_r[0] c_mar_row_A2_ac_9_3_case[0]
 c_mar_row_A2_ac_9_3_case[1] c_mar_row_A2_ac_9_2_case[0]
 c_mar_row_A2_ac_9_2_case[1] c_mar_row_A2_ac_9_1_case[0]
 c_mar_row_A2_ac_9_1_case[1] c_mar_row_A2_ac_9_0_case[0]
 c_mar_row_A2_ac_9_0_case[1] c_mar_row_A2_pp_12_r[3]
 c_mar_row_A2_pp_12_r[2] c_mar_row_A2_pp_12_3_case[0]
 c_mar_row_A2_pp_12_3_case[1] c_mar_row_A2_pp_12_2_case[0]
 c_mar_row_A2_pp_12_2_case[1] c_mar_row_A2_nn_12_r[1]
 c_mar_row_A2_nn_12_r[0] c_mar_row_A2_nn_12_1_case[0]
 c_mar_row_A2_nn_12_1_case[1] c_mar_row_A2_nn_12_0_case[0]
 c_mar_row_A2_nn_12_0_case[1] c_mar_row_A2_ac_12_r[3]
 c_mar_row_A2_ac_12_r[2] c_mar_row_A2_ac_12_r[1] c_mar_row_A2_ac_12_r[0]
 c_mar_row_A2_ac_12_3_case[0] c_mar_row_A2_ac_12_3_case[1]
 c_mar_row_A2_ac_12_2_case[0] c_mar_row_A2_ac_12_2_case[1]
 c_mar_row_A2_ac_12_1_case[0] c_mar_row_A2_ac_12_1_case[1]
 c_mar_row_A2_ac_12_0_case[0] c_mar_row_A2_ac_12_0_case[1]
 c_mar_row_A2_pp_15_r[3] c_mar_row_A2_pp_15_r[2]
 c_mar_row_A2_pp_15_3_case[0] c_mar_row_A2_pp_15_2_case[0]
 c_mar_row_A2_nn_15_r[1] c_mar_row_A2_nn_15_r[0]
 c_mar_row_A2_nn_15_1_case[0] c_mar_row_A2_nn_15_0_case[0]
 c_mar_row_A2_ac_15_r[3] c_mar_row_A2_ac_15_r[2] c_mar_row_A2_ac_15_r[1]
 c_mar_row_A2_ac_15_r[0] c_mar_row_A2_ac_15_3_case[0]
 c_mar_row_A2_ac_15_2_case[0] c_mar_row_A2_ac_15_1_case[0]
 c_mar_row_A2_ac_15_0_case[0] y_A2_edge_pv_3_pv_4_3 y_A2_edge_pv_3_pv_4_2
 y_A2_edge_nv_3_nv_4_1 y_A2_edge_nv_3_nv_4_0 y_A2_edge_pv_4_pv_6_3
 y_A2_edge_pv_4_pv_6_2 y_A2_edge_nv_4_nv_6_1 y_A2_edge_nv_4_nv_6_0
 y_A2_edge_pv_6_pv_8_3 y_A2_edge_pv_6_pv_8_2 y_A2_edge_nv_6_nv_8_1
 y_A2_edge_nv_6_nv_8_0 y_A2_edge_pv_8_pv_9_3 y_A2_edge_pv_8_pv_9_2
 y_A2_edge_nv_8_nv_9_1 y_A2_edge_nv_8_nv_9_0 y_A2_edge_pv_9_pv_12_3
 y_A2_edge_pv_9_pv_12_2 y_A2_edge_nv_9_nv_12_1 y_A2_edge_nv_9_nv_12_0
 y_A2_edge_pv_12_pv_15_3 y_A2_edge_pv_12_pv_15_2 y_A2_edge_nv_12_nv_15_1
 y_A2_edge_nv_12_nv_15_0 y_A2_edge_via_enable_m1_4_pv_4
 y_A2_edge_via_enable_m1_4_nv_4 y_A2_edge_m1_4_m1_8_r_7
 y_A2_edge_m1_4_m1_8_r_6 y_A2_edge_m1_4_m1_8_r_5 y_A2_edge_m1_4_m1_8_r_4
 y_A2_edge_via_enable_m1_8_pv_8 y_A2_edge_via_enable_m1_8_nv_8
 y_A2_edge_m1_8_m1_12_r_7 y_A2_edge_m1_8_m1_12_r_6 y_A2_edge_m1_8_m1_12_r_5
 y_A2_edge_m1_8_m1_12_r_4 y_A2_edge_via_enable_m1_12_pv_12
 y_A2_edge_via_enable_m1_12_nv_12 t_net16_c_r[0,3] t_net16_c_r[0,2]
 t_net16_c_r[0,1] t_net16_c_r[0,0] t_net16_c_r[1,3] t_net16_c_r[1,2]
 t_net16_c_r[1,1] t_net16_c_r[1,0] t_net16_c_r[2,3] t_net16_c_r[2,2]
 t_net16_c_r[2,1] t_net16_c_r[2,0] t_net16_c_r[3,3] t_net16_c_r[3,2]
 t_net16_c_r[3,1] t_net16_c_r[3,0] t_net16_c_r[4,3] t_net16_c_r[4,2]
 t_net16_c_r[4,1] t_net16_c_r[4,0] v_net16_v[0] v_net16_v[1] v_net16_v[2]
 ut_net16_c_r[0,7] ut_net16_c_r[0,6] ut_net16_c_r[0,5] ut_net16_c_r[0,4]
 ut_net16_c_r[1,7] ut_net16_c_r[1,6] ut_net16_c_r[1,5] ut_net16_c_r[1,4]
 ut_net16_c_r[2,7] ut_net16_c_r[2,6] ut_net16_c_r[2,5] ut_net16_c_r[2,4]
 ut_net16_c_r[3,7] ut_net16_c_r[3,6] ut_net16_c_r[3,5] ut_net16_c_r[3,4]
 ut_net16_c_r[4,7] ut_net16_c_r[4,6] ut_net16_c_r[4,5] ut_net16_c_r[4,4]
 indicator_net16_pp_3 indicator_net16_nn_3 indicator_net16_ac_3
 root_node_net16_pp_3 root_node_net16_nn_3 root_node_net16_ac_3
 max_indicator_net16_pp_3 max_indicator_net16_nn_3 max_indicator_net16_ac_3
 indicator_net16_pp_6 indicator_net16_nn_6 indicator_net16_ac_6
 root_node_net16_pp_6 root_node_net16_nn_6 root_node_net16_ac_6
 max_indicator_net16_pp_6 max_indicator_net16_nn_6 max_indicator_net16_ac_6
 indicator_net16_pp_9 indicator_net16_nn_9 indicator_net16_ac_9
 root_node_net16_pp_9 root_node_net16_nn_9 root_node_net16_ac_9
 max_indicator_net16_pp_9 max_indicator_net16_nn_9 max_indicator_net16_ac_9
 indicator_net16_pp_12 indicator_net16_nn_12 indicator_net16_ac_12
 root_node_net16_pp_12 root_node_net16_nn_12 root_node_net16_ac_12
 max_indicator_net16_pp_12 max_indicator_net16_nn_12
 max_indicator_net16_ac_12 indicator_net16_pp_15 indicator_net16_nn_15
 indicator_net16_ac_15 root_node_net16_pp_15 root_node_net16_nn_15
 root_node_net16_ac_15 max_indicator_net16_pp_15 max_indicator_net16_nn_15
 max_indicator_net16_ac_15 io_detector_net16
 y_net16_edge_connector_pv_3_pp_3_co y_net16_edge_connector_pv_3_ac_3_co
 y_net16_edge_connector_nv_3_nn_3_co y_net16_edge_connector_nv_3_ac_3_co
 y_net16_edge_connector_pv_6_pp_6_co y_net16_edge_connector_pv_6_ac_6_co
 y_net16_edge_connector_nv_6_nn_6_co y_net16_edge_connector_nv_6_ac_6_co
 y_net16_edge_connector_pv_9_pp_9_co y_net16_edge_connector_pv_9_ac_9_co
 y_net16_edge_connector_nv_9_nn_9_co y_net16_edge_connector_nv_9_ac_9_co
 y_net16_edge_connector_pv_12_pp_12_co
 y_net16_edge_connector_pv_12_ac_12_co
 y_net16_edge_connector_nv_12_nn_12_co
 y_net16_edge_connector_nv_12_ac_12_co
 y_net16_edge_connector_pv_15_pp_15_co
 y_net16_edge_connector_pv_15_ac_15_co
 y_net16_edge_connector_nv_15_nn_15_co
 y_net16_edge_connector_nv_15_ac_15_co c_mar_row_net16_pp_3_r[3]
 c_mar_row_net16_pp_3_r[2] c_mar_row_net16_pp_3_3_case[0]
 c_mar_row_net16_pp_3_2_case[0] c_mar_row_net16_nn_3_r[1]
 c_mar_row_net16_nn_3_r[0] c_mar_row_net16_nn_3_1_case[0]
 c_mar_row_net16_nn_3_0_case[0] c_mar_row_net16_ac_3_r[3]
 c_mar_row_net16_ac_3_r[2] c_mar_row_net16_ac_3_r[1]
 c_mar_row_net16_ac_3_r[0] c_mar_row_net16_ac_3_3_case[0]
 c_mar_row_net16_ac_3_2_case[0] c_mar_row_net16_ac_3_1_case[0]
 c_mar_row_net16_ac_3_0_case[0] c_mar_row_net16_pp_6_r[3]
 c_mar_row_net16_pp_6_r[2] c_mar_row_net16_pp_6_3_case[0]
 c_mar_row_net16_pp_6_3_case[1] c_mar_row_net16_pp_6_2_case[0]
 c_mar_row_net16_pp_6_2_case[1] c_mar_row_net16_nn_6_r[1]
 c_mar_row_net16_nn_6_r[0] c_mar_row_net16_nn_6_1_case[0]
 c_mar_row_net16_nn_6_1_case[1] c_mar_row_net16_nn_6_0_case[0]
 c_mar_row_net16_nn_6_0_case[1] c_mar_row_net16_ac_6_r[3]
 c_mar_row_net16_ac_6_r[2] c_mar_row_net16_ac_6_r[1]
 c_mar_row_net16_ac_6_r[0] c_mar_row_net16_ac_6_3_case[0]
 c_mar_row_net16_ac_6_3_case[1] c_mar_row_net16_ac_6_2_case[0]
 c_mar_row_net16_ac_6_2_case[1] c_mar_row_net16_ac_6_1_case[0]
 c_mar_row_net16_ac_6_1_case[1] c_mar_row_net16_ac_6_0_case[0]
 c_mar_row_net16_ac_6_0_case[1] c_mar_row_net16_pp_9_r[3]
 c_mar_row_net16_pp_9_r[2] c_mar_row_net16_pp_9_3_case[0]
 c_mar_row_net16_pp_9_3_case[1] c_mar_row_net16_pp_9_2_case[0]
 c_mar_row_net16_pp_9_2_case[1] c_mar_row_net16_nn_9_r[1]
 c_mar_row_net16_nn_9_r[0] c_mar_row_net16_nn_9_1_case[0]
 c_mar_row_net16_nn_9_1_case[1] c_mar_row_net16_nn_9_0_case[0]
 c_mar_row_net16_nn_9_0_case[1] c_mar_row_net16_ac_9_r[3]
 c_mar_row_net16_ac_9_r[2] c_mar_row_net16_ac_9_r[1]
 c_mar_row_net16_ac_9_r[0] c_mar_row_net16_ac_9_3_case[0]
 c_mar_row_net16_ac_9_3_case[1] c_mar_row_net16_ac_9_2_case[0]
 c_mar_row_net16_ac_9_2_case[1] c_mar_row_net16_ac_9_1_case[0]
 c_mar_row_net16_ac_9_1_case[1] c_mar_row_net16_ac_9_0_case[0]
 c_mar_row_net16_ac_9_0_case[1] c_mar_row_net16_pp_12_r[3]
 c_mar_row_net16_pp_12_r[2] c_mar_row_net16_pp_12_3_case[0]
 c_mar_row_net16_pp_12_3_case[1] c_mar_row_net16_pp_12_2_case[0]
 c_mar_row_net16_pp_12_2_case[1] c_mar_row_net16_nn_12_r[1]
 c_mar_row_net16_nn_12_r[0] c_mar_row_net16_nn_12_1_case[0]
 c_mar_row_net16_nn_12_1_case[1] c_mar_row_net16_nn_12_0_case[0]
 c_mar_row_net16_nn_12_0_case[1] c_mar_row_net16_ac_12_r[3]
 c_mar_row_net16_ac_12_r[2] c_mar_row_net16_ac_12_r[1]
 c_mar_row_net16_ac_12_r[0] c_mar_row_net16_ac_12_3_case[0]
 c_mar_row_net16_ac_12_3_case[1] c_mar_row_net16_ac_12_2_case[0]
 c_mar_row_net16_ac_12_2_case[1] c_mar_row_net16_ac_12_1_case[0]
 c_mar_row_net16_ac_12_1_case[1] c_mar_row_net16_ac_12_0_case[0]
 c_mar_row_net16_ac_12_0_case[1] c_mar_row_net16_pp_15_r[3]
 c_mar_row_net16_pp_15_r[2] c_mar_row_net16_pp_15_3_case[0]
 c_mar_row_net16_pp_15_2_case[0] c_mar_row_net16_nn_15_r[1]
 c_mar_row_net16_nn_15_r[0] c_mar_row_net16_nn_15_1_case[0]
 c_mar_row_net16_nn_15_0_case[0] c_mar_row_net16_ac_15_r[3]
 c_mar_row_net16_ac_15_r[2] c_mar_row_net16_ac_15_r[1]
 c_mar_row_net16_ac_15_r[0] c_mar_row_net16_ac_15_3_case[0]
 c_mar_row_net16_ac_15_2_case[0] c_mar_row_net16_ac_15_1_case[0]
 c_mar_row_net16_ac_15_0_case[0] y_net16_edge_pv_3_pv_4_3
 y_net16_edge_pv_3_pv_4_2 y_net16_edge_nv_3_nv_4_1 y_net16_edge_nv_3_nv_4_0
 y_net16_edge_pv_4_pv_6_3 y_net16_edge_pv_4_pv_6_2 y_net16_edge_nv_4_nv_6_1
 y_net16_edge_nv_4_nv_6_0 y_net16_edge_pv_6_pv_8_3 y_net16_edge_pv_6_pv_8_2
 y_net16_edge_nv_6_nv_8_1 y_net16_edge_nv_6_nv_8_0 y_net16_edge_pv_8_pv_9_3
 y_net16_edge_pv_8_pv_9_2 y_net16_edge_nv_8_nv_9_1 y_net16_edge_nv_8_nv_9_0
 y_net16_edge_pv_9_pv_12_3 y_net16_edge_pv_9_pv_12_2
 y_net16_edge_nv_9_nv_12_1 y_net16_edge_nv_9_nv_12_0
 y_net16_edge_pv_12_pv_15_3 y_net16_edge_pv_12_pv_15_2
 y_net16_edge_nv_12_nv_15_1 y_net16_edge_nv_12_nv_15_0
 y_net16_edge_via_enable_m1_4_pv_4 y_net16_edge_via_enable_m1_4_nv_4
 y_net16_edge_m1_4_m1_8_r_7 y_net16_edge_m1_4_m1_8_r_6
 y_net16_edge_m1_4_m1_8_r_5 y_net16_edge_m1_4_m1_8_r_4
 y_net16_edge_via_enable_m1_8_pv_8 y_net16_edge_via_enable_m1_8_nv_8
 y_net16_edge_m1_8_m1_12_r_7 y_net16_edge_m1_8_m1_12_r_6
 y_net16_edge_m1_8_m1_12_r_5 y_net16_edge_m1_8_m1_12_r_4
 y_net16_edge_via_enable_m1_12_pv_12 y_net16_edge_via_enable_m1_12_nv_12
 t_A1_c_r[0,3] t_A1_c_r[0,2] t_A1_c_r[0,1] t_A1_c_r[0,0] t_A1_c_r[1,3]
 t_A1_c_r[1,2] t_A1_c_r[1,1] t_A1_c_r[1,0] t_A1_c_r[2,3] t_A1_c_r[2,2]
 t_A1_c_r[2,1] t_A1_c_r[2,0] t_A1_c_r[3,3] t_A1_c_r[3,2] t_A1_c_r[3,1]
 t_A1_c_r[3,0] t_A1_c_r[4,3] t_A1_c_r[4,2] t_A1_c_r[4,1] t_A1_c_r[4,0]
 v_A1_v[0] v_A1_v[1] v_A1_v[2] ut_A1_c_r[0,7] ut_A1_c_r[0,6] ut_A1_c_r[0,5]
 ut_A1_c_r[0,4] ut_A1_c_r[1,7] ut_A1_c_r[1,6] ut_A1_c_r[1,5] ut_A1_c_r[1,4]
 ut_A1_c_r[2,7] ut_A1_c_r[2,6] ut_A1_c_r[2,5] ut_A1_c_r[2,4] ut_A1_c_r[3,7]
 ut_A1_c_r[3,6] ut_A1_c_r[3,5] ut_A1_c_r[3,4] ut_A1_c_r[4,7] ut_A1_c_r[4,6]
 ut_A1_c_r[4,5] ut_A1_c_r[4,4] indicator_A1_pp_3 indicator_A1_nn_3
 indicator_A1_ac_3 root_node_A1_pp_3 root_node_A1_nn_3 root_node_A1_ac_3
 max_indicator_A1_pp_3 max_indicator_A1_nn_3 max_indicator_A1_ac_3
 indicator_A1_pp_6 indicator_A1_nn_6 indicator_A1_ac_6 root_node_A1_pp_6
 root_node_A1_nn_6 root_node_A1_ac_6 max_indicator_A1_pp_6
 max_indicator_A1_nn_6 max_indicator_A1_ac_6 indicator_A1_pp_9
 indicator_A1_nn_9 indicator_A1_ac_9 root_node_A1_pp_9 root_node_A1_nn_9
 root_node_A1_ac_9 max_indicator_A1_pp_9 max_indicator_A1_nn_9
 max_indicator_A1_ac_9 indicator_A1_pp_12 indicator_A1_nn_12
 indicator_A1_ac_12 root_node_A1_pp_12 root_node_A1_nn_12
 root_node_A1_ac_12 max_indicator_A1_pp_12 max_indicator_A1_nn_12
 max_indicator_A1_ac_12 indicator_A1_pp_15 indicator_A1_nn_15
 indicator_A1_ac_15 root_node_A1_pp_15 root_node_A1_nn_15
 root_node_A1_ac_15 max_indicator_A1_pp_15 max_indicator_A1_nn_15
 max_indicator_A1_ac_15 io_detector_A1 y_A1_edge_connector_pv_3_pp_3_co
 y_A1_edge_connector_pv_3_ac_3_co y_A1_edge_connector_nv_3_nn_3_co
 y_A1_edge_connector_nv_3_ac_3_co y_A1_edge_connector_pv_6_pp_6_co
 y_A1_edge_connector_pv_6_ac_6_co y_A1_edge_connector_nv_6_nn_6_co
 y_A1_edge_connector_nv_6_ac_6_co y_A1_edge_connector_pv_9_pp_9_co
 y_A1_edge_connector_pv_9_ac_9_co y_A1_edge_connector_nv_9_nn_9_co
 y_A1_edge_connector_nv_9_ac_9_co y_A1_edge_connector_pv_12_pp_12_co
 y_A1_edge_connector_pv_12_ac_12_co y_A1_edge_connector_nv_12_nn_12_co
 y_A1_edge_connector_nv_12_ac_12_co y_A1_edge_connector_pv_15_pp_15_co
 y_A1_edge_connector_pv_15_ac_15_co y_A1_edge_connector_nv_15_nn_15_co
 y_A1_edge_connector_nv_15_ac_15_co c_mar_row_A1_pp_3_r[3]
 c_mar_row_A1_pp_3_r[2] c_mar_row_A1_pp_3_3_case[0]
 c_mar_row_A1_pp_3_2_case[0] c_mar_row_A1_nn_3_r[1] c_mar_row_A1_nn_3_r[0]
 c_mar_row_A1_nn_3_1_case[0] c_mar_row_A1_nn_3_0_case[0]
 c_mar_row_A1_ac_3_r[3] c_mar_row_A1_ac_3_r[2] c_mar_row_A1_ac_3_r[1]
 c_mar_row_A1_ac_3_r[0] c_mar_row_A1_ac_3_3_case[0]
 c_mar_row_A1_ac_3_2_case[0] c_mar_row_A1_ac_3_1_case[0]
 c_mar_row_A1_ac_3_0_case[0] c_mar_row_A1_pp_6_r[3] c_mar_row_A1_pp_6_r[2]
 c_mar_row_A1_pp_6_3_case[0] c_mar_row_A1_pp_6_3_case[1]
 c_mar_row_A1_pp_6_2_case[0] c_mar_row_A1_pp_6_2_case[1]
 c_mar_row_A1_nn_6_r[1] c_mar_row_A1_nn_6_r[0] c_mar_row_A1_nn_6_1_case[0]
 c_mar_row_A1_nn_6_1_case[1] c_mar_row_A1_nn_6_0_case[0]
 c_mar_row_A1_nn_6_0_case[1] c_mar_row_A1_ac_6_r[3] c_mar_row_A1_ac_6_r[2]
 c_mar_row_A1_ac_6_r[1] c_mar_row_A1_ac_6_r[0] c_mar_row_A1_ac_6_3_case[0]
 c_mar_row_A1_ac_6_3_case[1] c_mar_row_A1_ac_6_2_case[0]
 c_mar_row_A1_ac_6_2_case[1] c_mar_row_A1_ac_6_1_case[0]
 c_mar_row_A1_ac_6_1_case[1] c_mar_row_A1_ac_6_0_case[0]
 c_mar_row_A1_ac_6_0_case[1] c_mar_row_A1_pp_9_r[3] c_mar_row_A1_pp_9_r[2]
 c_mar_row_A1_pp_9_3_case[0] c_mar_row_A1_pp_9_3_case[1]
 c_mar_row_A1_pp_9_2_case[0] c_mar_row_A1_pp_9_2_case[1]
 c_mar_row_A1_nn_9_r[1] c_mar_row_A1_nn_9_r[0] c_mar_row_A1_nn_9_1_case[0]
 c_mar_row_A1_nn_9_1_case[1] c_mar_row_A1_nn_9_0_case[0]
 c_mar_row_A1_nn_9_0_case[1] c_mar_row_A1_ac_9_r[3] c_mar_row_A1_ac_9_r[2]
 c_mar_row_A1_ac_9_r[1] c_mar_row_A1_ac_9_r[0] c_mar_row_A1_ac_9_3_case[0]
 c_mar_row_A1_ac_9_3_case[1] c_mar_row_A1_ac_9_2_case[0]
 c_mar_row_A1_ac_9_2_case[1] c_mar_row_A1_ac_9_1_case[0]
 c_mar_row_A1_ac_9_1_case[1] c_mar_row_A1_ac_9_0_case[0]
 c_mar_row_A1_ac_9_0_case[1] c_mar_row_A1_pp_12_r[3]
 c_mar_row_A1_pp_12_r[2] c_mar_row_A1_pp_12_3_case[0]
 c_mar_row_A1_pp_12_3_case[1] c_mar_row_A1_pp_12_2_case[0]
 c_mar_row_A1_pp_12_2_case[1] c_mar_row_A1_nn_12_r[1]
 c_mar_row_A1_nn_12_r[0] c_mar_row_A1_nn_12_1_case[0]
 c_mar_row_A1_nn_12_1_case[1] c_mar_row_A1_nn_12_0_case[0]
 c_mar_row_A1_nn_12_0_case[1] c_mar_row_A1_ac_12_r[3]
 c_mar_row_A1_ac_12_r[2] c_mar_row_A1_ac_12_r[1] c_mar_row_A1_ac_12_r[0]
 c_mar_row_A1_ac_12_3_case[0] c_mar_row_A1_ac_12_3_case[1]
 c_mar_row_A1_ac_12_2_case[0] c_mar_row_A1_ac_12_2_case[1]
 c_mar_row_A1_ac_12_1_case[0] c_mar_row_A1_ac_12_1_case[1]
 c_mar_row_A1_ac_12_0_case[0] c_mar_row_A1_ac_12_0_case[1]
 c_mar_row_A1_pp_15_r[3] c_mar_row_A1_pp_15_r[2]
 c_mar_row_A1_pp_15_3_case[0] c_mar_row_A1_pp_15_2_case[0]
 c_mar_row_A1_nn_15_r[1] c_mar_row_A1_nn_15_r[0]
 c_mar_row_A1_nn_15_1_case[0] c_mar_row_A1_nn_15_0_case[0]
 c_mar_row_A1_ac_15_r[3] c_mar_row_A1_ac_15_r[2] c_mar_row_A1_ac_15_r[1]
 c_mar_row_A1_ac_15_r[0] c_mar_row_A1_ac_15_3_case[0]
 c_mar_row_A1_ac_15_2_case[0] c_mar_row_A1_ac_15_1_case[0]
 c_mar_row_A1_ac_15_0_case[0] y_A1_edge_pv_3_pv_4_3 y_A1_edge_pv_3_pv_4_2
 y_A1_edge_nv_3_nv_4_1 y_A1_edge_nv_3_nv_4_0 y_A1_edge_pv_4_pv_6_3
 y_A1_edge_pv_4_pv_6_2 y_A1_edge_nv_4_nv_6_1 y_A1_edge_nv_4_nv_6_0
 y_A1_edge_pv_6_pv_8_3 y_A1_edge_pv_6_pv_8_2 y_A1_edge_nv_6_nv_8_1
 y_A1_edge_nv_6_nv_8_0 y_A1_edge_pv_8_pv_9_3 y_A1_edge_pv_8_pv_9_2
 y_A1_edge_nv_8_nv_9_1 y_A1_edge_nv_8_nv_9_0 y_A1_edge_pv_9_pv_12_3
 y_A1_edge_pv_9_pv_12_2 y_A1_edge_nv_9_nv_12_1 y_A1_edge_nv_9_nv_12_0
 y_A1_edge_pv_12_pv_15_3 y_A1_edge_pv_12_pv_15_2 y_A1_edge_nv_12_nv_15_1
 y_A1_edge_nv_12_nv_15_0 y_A1_edge_via_enable_m1_4_pv_4
 y_A1_edge_via_enable_m1_4_nv_4 y_A1_edge_m1_4_m1_8_r_7
 y_A1_edge_m1_4_m1_8_r_6 y_A1_edge_m1_4_m1_8_r_5 y_A1_edge_m1_4_m1_8_r_4
 y_A1_edge_via_enable_m1_8_pv_8 y_A1_edge_via_enable_m1_8_nv_8
 y_A1_edge_m1_8_m1_12_r_7 y_A1_edge_m1_8_m1_12_r_6 y_A1_edge_m1_8_m1_12_r_5
 y_A1_edge_m1_8_m1_12_r_4 y_A1_edge_via_enable_m1_12_pv_12
 y_A1_edge_via_enable_m1_12_nv_12 t_ZN_c_r[0,3] t_ZN_c_r[0,2] t_ZN_c_r[0,1]
 t_ZN_c_r[0,0] t_ZN_c_r[1,3] t_ZN_c_r[1,2] t_ZN_c_r[1,1] t_ZN_c_r[1,0]
 t_ZN_c_r[2,3] t_ZN_c_r[2,2] t_ZN_c_r[2,1] t_ZN_c_r[2,0] t_ZN_c_r[3,3]
 t_ZN_c_r[3,2] t_ZN_c_r[3,1] t_ZN_c_r[3,0] t_ZN_c_r[4,3] t_ZN_c_r[4,2]
 t_ZN_c_r[4,1] t_ZN_c_r[4,0] v_ZN_v[0] v_ZN_v[1] v_ZN_v[2] ut_ZN_c_r[0,7]
 ut_ZN_c_r[0,6] ut_ZN_c_r[0,5] ut_ZN_c_r[0,4] ut_ZN_c_r[1,7] ut_ZN_c_r[1,6]
 ut_ZN_c_r[1,5] ut_ZN_c_r[1,4] ut_ZN_c_r[2,7] ut_ZN_c_r[2,6] ut_ZN_c_r[2,5]
 ut_ZN_c_r[2,4] ut_ZN_c_r[3,7] ut_ZN_c_r[3,6] ut_ZN_c_r[3,5] ut_ZN_c_r[3,4]
 ut_ZN_c_r[4,7] ut_ZN_c_r[4,6] ut_ZN_c_r[4,5] ut_ZN_c_r[4,4]
 indicator_ZN_pp_3 indicator_ZN_nn_3 indicator_ZN_ac_3 root_node_ZN_pp_3
 root_node_ZN_nn_3 root_node_ZN_ac_3 max_indicator_ZN_pp_3
 max_indicator_ZN_nn_3 max_indicator_ZN_ac_3 indicator_ZN_pp_6
 indicator_ZN_nn_6 indicator_ZN_ac_6 root_node_ZN_pp_6 root_node_ZN_nn_6
 root_node_ZN_ac_6 max_indicator_ZN_pp_6 max_indicator_ZN_nn_6
 max_indicator_ZN_ac_6 indicator_ZN_pp_9 indicator_ZN_nn_9
 indicator_ZN_ac_9 root_node_ZN_pp_9 root_node_ZN_nn_9 root_node_ZN_ac_9
 max_indicator_ZN_pp_9 max_indicator_ZN_nn_9 max_indicator_ZN_ac_9
 indicator_ZN_pp_12 indicator_ZN_nn_12 indicator_ZN_ac_12
 root_node_ZN_pp_12 root_node_ZN_nn_12 root_node_ZN_ac_12
 max_indicator_ZN_pp_12 max_indicator_ZN_nn_12 max_indicator_ZN_ac_12
 indicator_ZN_pp_15 indicator_ZN_nn_15 indicator_ZN_ac_15
 root_node_ZN_pp_15 root_node_ZN_nn_15 root_node_ZN_ac_15
 max_indicator_ZN_pp_15 max_indicator_ZN_nn_15 max_indicator_ZN_ac_15
 io_detector_ZN y_ZN_edge_connector_pv_3_pp_3_co
 y_ZN_edge_connector_pv_3_ac_3_co y_ZN_edge_connector_nv_3_nn_3_co
 y_ZN_edge_connector_nv_3_ac_3_co y_ZN_edge_connector_pv_6_pp_6_co
 y_ZN_edge_connector_pv_6_ac_6_co y_ZN_edge_connector_nv_6_nn_6_co
 y_ZN_edge_connector_nv_6_ac_6_co y_ZN_edge_connector_pv_9_pp_9_co
 y_ZN_edge_connector_pv_9_ac_9_co y_ZN_edge_connector_nv_9_nn_9_co
 y_ZN_edge_connector_nv_9_ac_9_co y_ZN_edge_connector_pv_12_pp_12_co
 y_ZN_edge_connector_pv_12_ac_12_co y_ZN_edge_connector_nv_12_nn_12_co
 y_ZN_edge_connector_nv_12_ac_12_co y_ZN_edge_connector_pv_15_pp_15_co
 y_ZN_edge_connector_pv_15_ac_15_co y_ZN_edge_connector_nv_15_nn_15_co
 y_ZN_edge_connector_nv_15_ac_15_co c_mar_row_ZN_pp_3_r[3]
 c_mar_row_ZN_pp_3_r[2] c_mar_row_ZN_pp_3_3_case[0]
 c_mar_row_ZN_pp_3_2_case[0] c_mar_row_ZN_nn_3_r[1] c_mar_row_ZN_nn_3_r[0]
 c_mar_row_ZN_nn_3_1_case[0] c_mar_row_ZN_nn_3_0_case[0]
 c_mar_row_ZN_ac_3_r[3] c_mar_row_ZN_ac_3_r[2] c_mar_row_ZN_ac_3_r[1]
 c_mar_row_ZN_ac_3_r[0] c_mar_row_ZN_ac_3_3_case[0]
 c_mar_row_ZN_ac_3_2_case[0] c_mar_row_ZN_ac_3_1_case[0]
 c_mar_row_ZN_ac_3_0_case[0] c_mar_row_ZN_pp_6_r[3] c_mar_row_ZN_pp_6_r[2]
 c_mar_row_ZN_pp_6_3_case[0] c_mar_row_ZN_pp_6_3_case[1]
 c_mar_row_ZN_pp_6_2_case[0] c_mar_row_ZN_pp_6_2_case[1]
 c_mar_row_ZN_nn_6_r[1] c_mar_row_ZN_nn_6_r[0] c_mar_row_ZN_nn_6_1_case[0]
 c_mar_row_ZN_nn_6_1_case[1] c_mar_row_ZN_nn_6_0_case[0]
 c_mar_row_ZN_nn_6_0_case[1] c_mar_row_ZN_ac_6_r[3] c_mar_row_ZN_ac_6_r[2]
 c_mar_row_ZN_ac_6_r[1] c_mar_row_ZN_ac_6_r[0] c_mar_row_ZN_ac_6_3_case[0]
 c_mar_row_ZN_ac_6_3_case[1] c_mar_row_ZN_ac_6_2_case[0]
 c_mar_row_ZN_ac_6_2_case[1] c_mar_row_ZN_ac_6_1_case[0]
 c_mar_row_ZN_ac_6_1_case[1] c_mar_row_ZN_ac_6_0_case[0]
 c_mar_row_ZN_ac_6_0_case[1] c_mar_row_ZN_pp_9_r[3] c_mar_row_ZN_pp_9_r[2]
 c_mar_row_ZN_pp_9_3_case[0] c_mar_row_ZN_pp_9_3_case[1]
 c_mar_row_ZN_pp_9_2_case[0] c_mar_row_ZN_pp_9_2_case[1]
 c_mar_row_ZN_nn_9_r[1] c_mar_row_ZN_nn_9_r[0] c_mar_row_ZN_nn_9_1_case[0]
 c_mar_row_ZN_nn_9_1_case[1] c_mar_row_ZN_nn_9_0_case[0]
 c_mar_row_ZN_nn_9_0_case[1] c_mar_row_ZN_ac_9_r[3] c_mar_row_ZN_ac_9_r[2]
 c_mar_row_ZN_ac_9_r[1] c_mar_row_ZN_ac_9_r[0] c_mar_row_ZN_ac_9_3_case[0]
 c_mar_row_ZN_ac_9_3_case[1] c_mar_row_ZN_ac_9_2_case[0]
 c_mar_row_ZN_ac_9_2_case[1] c_mar_row_ZN_ac_9_1_case[0]
 c_mar_row_ZN_ac_9_1_case[1] c_mar_row_ZN_ac_9_0_case[0]
 c_mar_row_ZN_ac_9_0_case[1] c_mar_row_ZN_pp_12_r[3]
 c_mar_row_ZN_pp_12_r[2] c_mar_row_ZN_pp_12_3_case[0]
 c_mar_row_ZN_pp_12_3_case[1] c_mar_row_ZN_pp_12_2_case[0]
 c_mar_row_ZN_pp_12_2_case[1] c_mar_row_ZN_nn_12_r[1]
 c_mar_row_ZN_nn_12_r[0] c_mar_row_ZN_nn_12_1_case[0]
 c_mar_row_ZN_nn_12_1_case[1] c_mar_row_ZN_nn_12_0_case[0]
 c_mar_row_ZN_nn_12_0_case[1] c_mar_row_ZN_ac_12_r[3]
 c_mar_row_ZN_ac_12_r[2] c_mar_row_ZN_ac_12_r[1] c_mar_row_ZN_ac_12_r[0]
 c_mar_row_ZN_ac_12_3_case[0] c_mar_row_ZN_ac_12_3_case[1]
 c_mar_row_ZN_ac_12_2_case[0] c_mar_row_ZN_ac_12_2_case[1]
 c_mar_row_ZN_ac_12_1_case[0] c_mar_row_ZN_ac_12_1_case[1]
 c_mar_row_ZN_ac_12_0_case[0] c_mar_row_ZN_ac_12_0_case[1]
 c_mar_row_ZN_pp_15_r[3] c_mar_row_ZN_pp_15_r[2]
 c_mar_row_ZN_pp_15_3_case[0] c_mar_row_ZN_pp_15_2_case[0]
 c_mar_row_ZN_nn_15_r[1] c_mar_row_ZN_nn_15_r[0]
 c_mar_row_ZN_nn_15_1_case[0] c_mar_row_ZN_nn_15_0_case[0]
 c_mar_row_ZN_ac_15_r[3] c_mar_row_ZN_ac_15_r[2] c_mar_row_ZN_ac_15_r[1]
 c_mar_row_ZN_ac_15_r[0] c_mar_row_ZN_ac_15_3_case[0]
 c_mar_row_ZN_ac_15_2_case[0] c_mar_row_ZN_ac_15_1_case[0]
 c_mar_row_ZN_ac_15_0_case[0] y_ZN_edge_pv_3_pv_4_3 y_ZN_edge_pv_3_pv_4_2
 y_ZN_edge_nv_3_nv_4_1 y_ZN_edge_nv_3_nv_4_0 y_ZN_edge_pv_4_pv_6_3
 y_ZN_edge_pv_4_pv_6_2 y_ZN_edge_nv_4_nv_6_1 y_ZN_edge_nv_4_nv_6_0
 y_ZN_edge_pv_6_pv_8_3 y_ZN_edge_pv_6_pv_8_2 y_ZN_edge_nv_6_nv_8_1
 y_ZN_edge_nv_6_nv_8_0 y_ZN_edge_pv_8_pv_9_3 y_ZN_edge_pv_8_pv_9_2
 y_ZN_edge_nv_8_nv_9_1 y_ZN_edge_nv_8_nv_9_0 y_ZN_edge_pv_9_pv_12_3
 y_ZN_edge_pv_9_pv_12_2 y_ZN_edge_nv_9_nv_12_1 y_ZN_edge_nv_9_nv_12_0
 y_ZN_edge_pv_12_pv_15_3 y_ZN_edge_pv_12_pv_15_2 y_ZN_edge_nv_12_nv_15_1
 y_ZN_edge_nv_12_nv_15_0 y_ZN_edge_via_enable_m1_4_pv_4
 y_ZN_edge_via_enable_m1_4_nv_4 y_ZN_edge_m1_4_m1_8_r_7
 y_ZN_edge_m1_4_m1_8_r_6 y_ZN_edge_m1_4_m1_8_r_5 y_ZN_edge_m1_4_m1_8_r_4
 y_ZN_edge_via_enable_m1_8_pv_8 y_ZN_edge_via_enable_m1_8_nv_8
 y_ZN_edge_m1_8_m1_12_r_7 y_ZN_edge_m1_8_m1_12_r_6 y_ZN_edge_m1_8_m1_12_r_5
 y_ZN_edge_m1_8_m1_12_r_4 y_ZN_edge_via_enable_m1_12_pv_12
 y_ZN_edge_via_enable_m1_12_nv_12 l_e_1 cond_col1_row3_netA1
 one_pin_net_bin_A1 pin_is_there_3_A1 cond_col1_row3_netA2
 one_pin_net_bin_A2 pin_is_there_3_A2 cond_col1_row3_netZN
 one_pin_net_bin_ZN pin_is_there_3_ZN cond_col1_row2_netA1
 one_pin_net_bin_A1 pin_is_there_2_A1 cond_col1_row2_netA2
 one_pin_net_bin_A2 pin_is_there_2_A2 cond_col1_row2_netZN
 one_pin_net_bin_ZN pin_is_there_2_ZN cond_col1_row1_netA1
 one_pin_net_bin_A1 pin_is_there_1_A1 cond_col1_row1_netA2
 one_pin_net_bin_A2 pin_is_there_1_A2 cond_col1_row1_netZN
 one_pin_net_bin_ZN pin_is_there_1_ZN cond_col1_row0_netA1
 one_pin_net_bin_A1 pin_is_there_0_A1 cond_col1_row0_netA2
 one_pin_net_bin_A2 pin_is_there_0_A2 cond_col1_row0_netZN
 one_pin_net_bin_ZN pin_is_there_0_ZN l_e_3 cond_col3_row3_netA1
 one_pin_net_bin_A1 pin_is_there_3_A1 cond_col3_row3_netA2
 one_pin_net_bin_A2 pin_is_there_3_A2 cond_col3_row3_netZN
 one_pin_net_bin_ZN pin_is_there_3_ZN cond_col3_row2_netA1
 one_pin_net_bin_A1 pin_is_there_2_A1 cond_col3_row2_netA2
 one_pin_net_bin_A2 pin_is_there_2_A2 cond_col3_row2_netZN
 one_pin_net_bin_ZN pin_is_there_2_ZN cond_col3_row1_netA1
 one_pin_net_bin_A1 pin_is_there_1_A1 cond_col3_row1_netA2
 one_pin_net_bin_A2 pin_is_there_1_A2 cond_col3_row1_netZN
 one_pin_net_bin_ZN pin_is_there_1_ZN cond_col3_row0_netA1
 one_pin_net_bin_A1 pin_is_there_0_A1 cond_col3_row0_netA2
 one_pin_net_bin_A2 pin_is_there_0_A2 cond_col3_row0_netZN
 one_pin_net_bin_ZN pin_is_there_0_ZN z_1_A1_A2_3_0 z_1_A1_A2_0_3
 z_1_A1_ZN_3_0 z_1_A1_ZN_0_3 z_1_A2_A1_3_0 z_1_A2_A1_0_3 z_1_A2_ZN_3_0
 z_1_A2_ZN_0_3 z_1_ZN_A1_3_0 z_1_ZN_A1_0_3 z_1_ZN_A2_3_0 z_1_ZN_A2_0_3
 o_m_p_7 o_m_p_6 o_m_p_5 o_m_p_4
Generals
 t_c_0 ut_c_0 t_c_0_3 t_c_0_2 t_c_0_1 t_c_0_0 ut_c_0_7 ut_c_0_6 ut_c_0_5
 ut_c_0_4 t_c_1 ut_c_1 t_c_1_3 t_c_1_2 t_c_1_1 t_c_1_0 ut_c_1_7 ut_c_1_6
 ut_c_1_5 ut_c_1_4 t_c_2 ut_c_2 t_c_2_3 t_c_2_2 t_c_2_1 t_c_2_0 ut_c_2_7
 ut_c_2_6 ut_c_2_5 ut_c_2_4 t_c_3 ut_c_3 t_c_3_3 t_c_3_2 t_c_3_1 t_c_3_0
 ut_c_3_7 ut_c_3_6 ut_c_3_5 ut_c_3_4 t_c_4 ut_c_4 t_c_4_3 t_c_4_2 t_c_4_1
 t_c_4_0 ut_c_4_7 ut_c_4_6 ut_c_4_5 ut_c_4_4 min_indicator_A2 max_bbox_A2
 f_A2_edge_connector_pv_3_pp_3_co f_A2_edge_connector_pv_3_ac_3_co
 f_A2_edge_connector_nv_3_nn_3_co f_A2_edge_connector_nv_3_ac_3_co
 f_A2_edge_connector_pv_6_pp_6_co f_A2_edge_connector_pv_6_ac_6_co
 f_A2_edge_connector_nv_6_nn_6_co f_A2_edge_connector_nv_6_ac_6_co
 f_A2_edge_connector_pv_9_pp_9_co f_A2_edge_connector_pv_9_ac_9_co
 f_A2_edge_connector_nv_9_nn_9_co f_A2_edge_connector_nv_9_ac_9_co
 f_A2_edge_connector_pv_12_pp_12_co f_A2_edge_connector_pv_12_ac_12_co
 f_A2_edge_connector_nv_12_nn_12_co f_A2_edge_connector_nv_12_ac_12_co
 f_A2_edge_connector_pv_15_pp_15_co f_A2_edge_connector_pv_15_ac_15_co
 f_A2_edge_connector_nv_15_nn_15_co f_A2_edge_connector_nv_15_ac_15_co
 f_A2_edge_pv_3_pv_4_3 f_A2_edge_pv_3_pv_4_2 f_A2_edge_nv_3_nv_4_1
 f_A2_edge_nv_3_nv_4_0 f_A2_edge_pv_4_pv_6_3 f_A2_edge_pv_4_pv_6_2
 f_A2_edge_nv_4_nv_6_1 f_A2_edge_nv_4_nv_6_0 f_A2_edge_pv_6_pv_8_3
 f_A2_edge_pv_6_pv_8_2 f_A2_edge_nv_6_nv_8_1 f_A2_edge_nv_6_nv_8_0
 f_A2_edge_pv_8_pv_9_3 f_A2_edge_pv_8_pv_9_2 f_A2_edge_nv_8_nv_9_1
 f_A2_edge_nv_8_nv_9_0 f_A2_edge_pv_9_pv_12_3 f_A2_edge_pv_9_pv_12_2
 f_A2_edge_nv_9_nv_12_1 f_A2_edge_nv_9_nv_12_0 f_A2_edge_pv_12_pv_15_3
 f_A2_edge_pv_12_pv_15_2 f_A2_edge_nv_12_nv_15_1 f_A2_edge_nv_12_nv_15_0
 f_A2_edge_via_enable_m1_4_pv_4 f_A2_edge_via_enable_m1_4_nv_4
 f_A2_edge_m1_4_m1_8_r_7 f_A2_edge_m1_4_m1_8_r_6 f_A2_edge_m1_4_m1_8_r_5
 f_A2_edge_m1_4_m1_8_r_4 f_A2_edge_via_enable_m1_8_pv_8
 f_A2_edge_via_enable_m1_8_nv_8 f_A2_edge_m1_8_m1_12_r_7
 f_A2_edge_m1_8_m1_12_r_6 f_A2_edge_m1_8_m1_12_r_5 f_A2_edge_m1_8_m1_12_r_4
 f_A2_edge_via_enable_m1_12_pv_12 f_A2_edge_via_enable_m1_12_nv_12
 cap_A2_ac_3 cap_A2_nn_3 cap_A2_nv_3 cap_A2_pp_3 cap_A2_pv_3 cap_A2_m1_4
 cap_A2_nv_4 cap_A2_pv_4 cap_A2_ac_6 cap_A2_nn_6 cap_A2_nv_6 cap_A2_pp_6
 cap_A2_pv_6 cap_A2_m1_8 cap_A2_nv_8 cap_A2_pv_8 cap_A2_ac_9 cap_A2_nn_9
 cap_A2_nv_9 cap_A2_pp_9 cap_A2_pv_9 cap_A2_ac_12 cap_A2_m1_12 cap_A2_nn_12
 cap_A2_nv_12 cap_A2_pp_12 cap_A2_pv_12 cap_A2_ac_15 cap_A2_nn_15
 cap_A2_nv_15 cap_A2_pp_15 cap_A2_pv_15 min_indicator_net16 max_bbox_net16
 f_net16_edge_connector_pv_3_pp_3_co f_net16_edge_connector_pv_3_ac_3_co
 f_net16_edge_connector_nv_3_nn_3_co f_net16_edge_connector_nv_3_ac_3_co
 f_net16_edge_connector_pv_6_pp_6_co f_net16_edge_connector_pv_6_ac_6_co
 f_net16_edge_connector_nv_6_nn_6_co f_net16_edge_connector_nv_6_ac_6_co
 f_net16_edge_connector_pv_9_pp_9_co f_net16_edge_connector_pv_9_ac_9_co
 f_net16_edge_connector_nv_9_nn_9_co f_net16_edge_connector_nv_9_ac_9_co
 f_net16_edge_connector_pv_12_pp_12_co
 f_net16_edge_connector_pv_12_ac_12_co
 f_net16_edge_connector_nv_12_nn_12_co
 f_net16_edge_connector_nv_12_ac_12_co
 f_net16_edge_connector_pv_15_pp_15_co
 f_net16_edge_connector_pv_15_ac_15_co
 f_net16_edge_connector_nv_15_nn_15_co
 f_net16_edge_connector_nv_15_ac_15_co f_net16_edge_pv_3_pv_4_3
 f_net16_edge_pv_3_pv_4_2 f_net16_edge_nv_3_nv_4_1 f_net16_edge_nv_3_nv_4_0
 f_net16_edge_pv_4_pv_6_3 f_net16_edge_pv_4_pv_6_2 f_net16_edge_nv_4_nv_6_1
 f_net16_edge_nv_4_nv_6_0 f_net16_edge_pv_6_pv_8_3 f_net16_edge_pv_6_pv_8_2
 f_net16_edge_nv_6_nv_8_1 f_net16_edge_nv_6_nv_8_0 f_net16_edge_pv_8_pv_9_3
 f_net16_edge_pv_8_pv_9_2 f_net16_edge_nv_8_nv_9_1 f_net16_edge_nv_8_nv_9_0
 f_net16_edge_pv_9_pv_12_3 f_net16_edge_pv_9_pv_12_2
 f_net16_edge_nv_9_nv_12_1 f_net16_edge_nv_9_nv_12_0
 f_net16_edge_pv_12_pv_15_3 f_net16_edge_pv_12_pv_15_2
 f_net16_edge_nv_12_nv_15_1 f_net16_edge_nv_12_nv_15_0
 f_net16_edge_via_enable_m1_4_pv_4 f_net16_edge_via_enable_m1_4_nv_4
 f_net16_edge_m1_4_m1_8_r_7 f_net16_edge_m1_4_m1_8_r_6
 f_net16_edge_m1_4_m1_8_r_5 f_net16_edge_m1_4_m1_8_r_4
 f_net16_edge_via_enable_m1_8_pv_8 f_net16_edge_via_enable_m1_8_nv_8
 f_net16_edge_m1_8_m1_12_r_7 f_net16_edge_m1_8_m1_12_r_6
 f_net16_edge_m1_8_m1_12_r_5 f_net16_edge_m1_8_m1_12_r_4
 f_net16_edge_via_enable_m1_12_pv_12 f_net16_edge_via_enable_m1_12_nv_12
 cap_net16_ac_3 cap_net16_nn_3 cap_net16_nv_3 cap_net16_pp_3 cap_net16_pv_3
 cap_net16_m1_4 cap_net16_nv_4 cap_net16_pv_4 cap_net16_ac_6 cap_net16_nn_6
 cap_net16_nv_6 cap_net16_pp_6 cap_net16_pv_6 cap_net16_m1_8 cap_net16_nv_8
 cap_net16_pv_8 cap_net16_ac_9 cap_net16_nn_9 cap_net16_nv_9 cap_net16_pp_9
 cap_net16_pv_9 cap_net16_ac_12 cap_net16_m1_12 cap_net16_nn_12
 cap_net16_nv_12 cap_net16_pp_12 cap_net16_pv_12 cap_net16_ac_15
 cap_net16_nn_15 cap_net16_nv_15 cap_net16_pp_15 cap_net16_pv_15
 min_indicator_A1 max_bbox_A1 f_A1_edge_connector_pv_3_pp_3_co
 f_A1_edge_connector_pv_3_ac_3_co f_A1_edge_connector_nv_3_nn_3_co
 f_A1_edge_connector_nv_3_ac_3_co f_A1_edge_connector_pv_6_pp_6_co
 f_A1_edge_connector_pv_6_ac_6_co f_A1_edge_connector_nv_6_nn_6_co
 f_A1_edge_connector_nv_6_ac_6_co f_A1_edge_connector_pv_9_pp_9_co
 f_A1_edge_connector_pv_9_ac_9_co f_A1_edge_connector_nv_9_nn_9_co
 f_A1_edge_connector_nv_9_ac_9_co f_A1_edge_connector_pv_12_pp_12_co
 f_A1_edge_connector_pv_12_ac_12_co f_A1_edge_connector_nv_12_nn_12_co
 f_A1_edge_connector_nv_12_ac_12_co f_A1_edge_connector_pv_15_pp_15_co
 f_A1_edge_connector_pv_15_ac_15_co f_A1_edge_connector_nv_15_nn_15_co
 f_A1_edge_connector_nv_15_ac_15_co f_A1_edge_pv_3_pv_4_3
 f_A1_edge_pv_3_pv_4_2 f_A1_edge_nv_3_nv_4_1 f_A1_edge_nv_3_nv_4_0
 f_A1_edge_pv_4_pv_6_3 f_A1_edge_pv_4_pv_6_2 f_A1_edge_nv_4_nv_6_1
 f_A1_edge_nv_4_nv_6_0 f_A1_edge_pv_6_pv_8_3 f_A1_edge_pv_6_pv_8_2
 f_A1_edge_nv_6_nv_8_1 f_A1_edge_nv_6_nv_8_0 f_A1_edge_pv_8_pv_9_3
 f_A1_edge_pv_8_pv_9_2 f_A1_edge_nv_8_nv_9_1 f_A1_edge_nv_8_nv_9_0
 f_A1_edge_pv_9_pv_12_3 f_A1_edge_pv_9_pv_12_2 f_A1_edge_nv_9_nv_12_1
 f_A1_edge_nv_9_nv_12_0 f_A1_edge_pv_12_pv_15_3 f_A1_edge_pv_12_pv_15_2
 f_A1_edge_nv_12_nv_15_1 f_A1_edge_nv_12_nv_15_0
 f_A1_edge_via_enable_m1_4_pv_4 f_A1_edge_via_enable_m1_4_nv_4
 f_A1_edge_m1_4_m1_8_r_7 f_A1_edge_m1_4_m1_8_r_6 f_A1_edge_m1_4_m1_8_r_5
 f_A1_edge_m1_4_m1_8_r_4 f_A1_edge_via_enable_m1_8_pv_8
 f_A1_edge_via_enable_m1_8_nv_8 f_A1_edge_m1_8_m1_12_r_7
 f_A1_edge_m1_8_m1_12_r_6 f_A1_edge_m1_8_m1_12_r_5 f_A1_edge_m1_8_m1_12_r_4
 f_A1_edge_via_enable_m1_12_pv_12 f_A1_edge_via_enable_m1_12_nv_12
 cap_A1_ac_3 cap_A1_nn_3 cap_A1_nv_3 cap_A1_pp_3 cap_A1_pv_3 cap_A1_m1_4
 cap_A1_nv_4 cap_A1_pv_4 cap_A1_ac_6 cap_A1_nn_6 cap_A1_nv_6 cap_A1_pp_6
 cap_A1_pv_6 cap_A1_m1_8 cap_A1_nv_8 cap_A1_pv_8 cap_A1_ac_9 cap_A1_nn_9
 cap_A1_nv_9 cap_A1_pp_9 cap_A1_pv_9 cap_A1_ac_12 cap_A1_m1_12 cap_A1_nn_12
 cap_A1_nv_12 cap_A1_pp_12 cap_A1_pv_12 cap_A1_ac_15 cap_A1_nn_15
 cap_A1_nv_15 cap_A1_pp_15 cap_A1_pv_15 min_indicator_ZN max_bbox_ZN
 f_ZN_edge_connector_pv_3_pp_3_co f_ZN_edge_connector_pv_3_ac_3_co
 f_ZN_edge_connector_nv_3_nn_3_co f_ZN_edge_connector_nv_3_ac_3_co
 f_ZN_edge_connector_pv_6_pp_6_co f_ZN_edge_connector_pv_6_ac_6_co
 f_ZN_edge_connector_nv_6_nn_6_co f_ZN_edge_connector_nv_6_ac_6_co
 f_ZN_edge_connector_pv_9_pp_9_co f_ZN_edge_connector_pv_9_ac_9_co
 f_ZN_edge_connector_nv_9_nn_9_co f_ZN_edge_connector_nv_9_ac_9_co
 f_ZN_edge_connector_pv_12_pp_12_co f_ZN_edge_connector_pv_12_ac_12_co
 f_ZN_edge_connector_nv_12_nn_12_co f_ZN_edge_connector_nv_12_ac_12_co
 f_ZN_edge_connector_pv_15_pp_15_co f_ZN_edge_connector_pv_15_ac_15_co
 f_ZN_edge_connector_nv_15_nn_15_co f_ZN_edge_connector_nv_15_ac_15_co
 f_ZN_edge_pv_3_pv_4_3 f_ZN_edge_pv_3_pv_4_2 f_ZN_edge_nv_3_nv_4_1
 f_ZN_edge_nv_3_nv_4_0 f_ZN_edge_pv_4_pv_6_3 f_ZN_edge_pv_4_pv_6_2
 f_ZN_edge_nv_4_nv_6_1 f_ZN_edge_nv_4_nv_6_0 f_ZN_edge_pv_6_pv_8_3
 f_ZN_edge_pv_6_pv_8_2 f_ZN_edge_nv_6_nv_8_1 f_ZN_edge_nv_6_nv_8_0
 f_ZN_edge_pv_8_pv_9_3 f_ZN_edge_pv_8_pv_9_2 f_ZN_edge_nv_8_nv_9_1
 f_ZN_edge_nv_8_nv_9_0 f_ZN_edge_pv_9_pv_12_3 f_ZN_edge_pv_9_pv_12_2
 f_ZN_edge_nv_9_nv_12_1 f_ZN_edge_nv_9_nv_12_0 f_ZN_edge_pv_12_pv_15_3
 f_ZN_edge_pv_12_pv_15_2 f_ZN_edge_nv_12_nv_15_1 f_ZN_edge_nv_12_nv_15_0
 f_ZN_edge_via_enable_m1_4_pv_4 f_ZN_edge_via_enable_m1_4_nv_4
 f_ZN_edge_m1_4_m1_8_r_7 f_ZN_edge_m1_4_m1_8_r_6 f_ZN_edge_m1_4_m1_8_r_5
 f_ZN_edge_m1_4_m1_8_r_4 f_ZN_edge_via_enable_m1_8_pv_8
 f_ZN_edge_via_enable_m1_8_nv_8 f_ZN_edge_m1_8_m1_12_r_7
 f_ZN_edge_m1_8_m1_12_r_6 f_ZN_edge_m1_8_m1_12_r_5 f_ZN_edge_m1_8_m1_12_r_4
 f_ZN_edge_via_enable_m1_12_pv_12 f_ZN_edge_via_enable_m1_12_nv_12
 cap_ZN_ac_3 cap_ZN_nn_3 cap_ZN_nv_3 cap_ZN_pp_3 cap_ZN_pv_3 cap_ZN_m1_4
 cap_ZN_nv_4 cap_ZN_pv_4 cap_ZN_ac_6 cap_ZN_nn_6 cap_ZN_nv_6 cap_ZN_pp_6
 cap_ZN_pv_6 cap_ZN_m1_8 cap_ZN_nv_8 cap_ZN_pv_8 cap_ZN_ac_9 cap_ZN_nn_9
 cap_ZN_nv_9 cap_ZN_pp_9 cap_ZN_pv_9 cap_ZN_ac_12 cap_ZN_m1_12 cap_ZN_nn_12
 cap_ZN_nv_12 cap_ZN_pp_12 cap_ZN_pv_12 cap_ZN_ac_15 cap_ZN_nn_15
 cap_ZN_nv_15 cap_ZN_pp_15 cap_ZN_pv_15 p_e_r_1 p_e_r_3
End
