* Signature: 0x908ca13cfabf1703
NAME transistor_placement
ROWS
 N  OBJ
 E  c0      
 E  c1      
 L  c2      
 L  c3      
 L  c4      
 L  c5      
 L  c6      
 E  c7      
 L  c8      
 L  c9      
 L  c10     
 L  c11     
 L  c12     
 L  c13     
 E  c14     
 L  c15     
 L  c16     
 L  c17     
 L  c18     
 L  c19     
 L  c20     
 L  c21     
 L  c22     
 L  c23     
 E  c24     
 L  c25     
 L  c26     
 L  c27     
 L  c28     
 L  c29     
 L  c30     
 L  c31     
 L  c32     
 E  c33     
 E  c34     
 E  c35     
 E  c36     
 E  c37     
 E  c38     
 G  c39     
 G  c40     
 L  c41     
 G  c42     
 G  c43     
 L  c44     
 L  c45     
 G  c46     
 G  c47     
 G  c48     
 L  c49     
 L  c50     
 G  c51     
 L  c52     
 L  c53     
 L  c54     
 L  c55     
 G  c56     
 E  c57     
 E  c58     
 L  c59     
 L  c60     
 G  c61     
 L  c62     
 L  c63     
 G  c64     
 L  c65     
 L  c66     
 G  c67     
 L  c68     
 L  c69     
 G  c70     
 L  c71     
 L  c72     
 L  c73     
 G  c74     
 L  c75     
 L  c76     
 G  c77     
 L  c78     
 L  c79     
 G  c80     
 L  c81     
 L  c82     
 G  c83     
 L  c84     
 G  c85     
 G  c86     
 L  c87     
 G  c88     
 G  c89     
 L  c90     
 L  c91     
 G  c92     
 L  c93     
 G  c94     
 L  c95     
 L  c96     
 G  c97     
 L  c98     
 G  c99     
 L  c100    
 G  c101    
 L  c102    
 L  c103    
 G  c104    
 L  c105    
 L  c106    
 G  c107    
 G  c108    
 G  c109    
 G  c110    
 G  c111    
 G  c112    
 G  c113    
 L  c114    
 L  c115    
 E  c116    
 E  c117    
 L  c118    
 L  c119    
 L  c120    
 L  c121    
 L  c122    
 L  c123    
 G  c124    
 G  c125    
 G  c126    
 G  c127    
 G  c128    
 G  c129    
 G  c130    
 G  c131    
 G  c132    
 G  c133    
 G  c134    
 G  c135    
 G  c136    
 L  c137    
 L  c138    
 E  c139    
 E  c140    
 L  c141    
 L  c142    
 L  c143    
 L  c144    
 L  c145    
 L  c146    
 G  c147    
 G  c148    
 G  c149    
 G  c150    
 G  c151    
 G  c152    
 G  c153    
 G  c154    
 G  c155    
 G  c156    
 G  c157    
 G  c158    
 G  c159    
 L  c160    
 L  c161    
 E  c162    
 E  c163    
 L  c164    
 L  c165    
 L  c166    
 L  c167    
 L  c168    
 L  c169    
 G  c170    
 G  c171    
 G  c172    
 G  c173    
 G  c174    
 G  c175    
 E  c176    
 E  c177    
 G  c178    
 L  c179    
 L  c180    
 L  c181    
 G  c182    
 L  c183    
 G  c184    
 L  c185    
 L  c186    
 G  c187    
 L  c188    
 G  c189    
 L  c190    
 L  c191    
 G  c192    
 L  c193    
 G  c194    
 L  c195    
 L  c196    
 G  c197    
 L  c198    
 G  c199    
 L  c200    
 L  c201    
 G  c202    
 L  c203    
 G  c204    
 L  c205    
 L  c206    
 G  c207    
 L  c208    
 G  c209    
 L  c210    
 L  c211    
 G  c212    
 L  c213    
 G  c214    
 L  c215    
 L  c216    
 G  c217    
 L  c218    
 G  c219    
 L  c220    
 L  c221    
 G  c222    
 L  c223    
 G  c224    
 L  c225    
 L  c226    
 G  c227    
 L  c228    
 G  c229    
 L  c230    
 L  c231    
 G  c232    
 L  c233    
 G  c234    
 L  c235    
 L  c236    
 G  c237    
 L  c238    
 G  c239    
 L  c240    
 L  c241    
 G  c242    
 L  c243    
 G  c244    
 L  c245    
 L  c246    
 L  c247    
 L  c248    
 G  c249    
 L  c250    
 L  c251    
 L  c252    
 L  c253    
 L  c254    
 G  c255    
 L  c256    
 G  c257    
 L  c258    
 L  c259    
 L  c260    
 L  c261    
 G  c262    
 L  c263    
 L  c264    
 L  c265    
 L  c266    
 L  c267    
 G  c268    
 L  c269    
 G  c270    
 L  c271    
 L  c272    
 L  c273    
 L  c274    
 G  c275    
 L  c276    
 L  c277    
 L  c278    
 L  c279    
 G  c280    
 L  c281    
 L  c282    
 L  c283    
 L  c284    
 G  c285    
 L  c286    
 L  c287    
 L  c288    
 L  c289    
 L  c290    
 G  c291    
 L  c292    
 G  c293    
 L  c294    
 L  c295    
 L  c296    
 L  c297    
 L  c298    
 L  c299    
 L  c300    
 G  c301    
 L  c302    
 L  c303    
 L  c304    
 L  c305    
 L  c306    
 L  c307    
 L  c308    
 L  c309    
 G  c310    
 L  c311    
 G  c312    
 L  c313    
 L  c314    
 L  c315    
 L  c316    
 L  c317    
 L  c318    
 L  c319    
 G  c320    
 L  c321    
 L  c322    
 L  c323    
 L  c324    
 L  c325    
 L  c326    
 L  c327    
 L  c328    
 G  c329    
 L  c330    
 G  c331    
 L  c332    
 L  c333    
 L  c334    
 L  c335    
 L  c336    
 L  c337    
 L  c338    
 G  c339    
 L  c340    
 L  c341    
 L  c342    
 L  c343    
 L  c344    
 L  c345    
 L  c346    
 G  c347    
 L  c348    
 L  c349    
 L  c350    
 L  c351    
 L  c352    
 L  c353    
 L  c354    
 G  c355    
 L  c356    
 L  c357    
 L  c358    
 L  c359    
 L  c360    
 L  c361    
 L  c362    
 L  c363    
 G  c364    
 L  c365    
 G  c366    
 L  c367    
 L  c368    
 L  c369    
 L  c370    
 G  c371    
 L  c372    
 L  c373    
 L  c374    
 L  c375    
 L  c376    
 G  c377    
 L  c378    
 G  c379    
 L  c380    
 L  c381    
 L  c382    
 L  c383    
 G  c384    
 L  c385    
 L  c386    
 L  c387    
 L  c388    
 L  c389    
 G  c390    
 L  c391    
 G  c392    
 L  c393    
 L  c394    
 L  c395    
 L  c396    
 G  c397    
 L  c398    
 L  c399    
 L  c400    
 L  c401    
 G  c402    
 L  c403    
 L  c404    
 L  c405    
 L  c406    
 G  c407    
 L  c408    
 L  c409    
 L  c410    
 L  c411    
 L  c412    
 L  c413    
 L  c414    
 G  c415    
 L  c416    
 L  c417    
 L  c418    
 L  c419    
 G  c420    
 L  c421    
 L  c422    
 L  c423    
 L  c424    
 G  c425    
 L  c426    
 L  c427    
 L  c428    
 L  c429    
 G  c430    
 L  c431    
 L  c432    
 L  c433    
 L  c434    
 G  c435    
 L  c436    
 L  c437    
 L  c438    
 L  c439    
 G  c440    
 L  c441    
 L  c442    
 L  c443    
 L  c444    
 G  c445    
 L  c446    
 L  c447    
 L  c448    
 L  c449    
 G  c450    
 L  c451    
 L  c452    
 L  c453    
 L  c454    
 G  c455    
 L  c456    
 L  c457    
 L  c458    
 L  c459    
 G  c460    
 L  c461    
 L  c462    
 L  c463    
 L  c464    
 G  c465    
 L  c466    
 L  c467    
 L  c468    
 L  c469    
 G  c470    
 L  c471    
 L  c472    
 L  c473    
 L  c474    
 G  c475    
 L  c476    
 L  c477    
 L  c478    
 L  c479    
 G  c480    
 L  c481    
 L  c482    
 L  c483    
 L  c484    
 G  c485    
 L  c486    
 L  c487    
 L  c488    
 L  c489    
 G  c490    
 L  c491    
 L  c492    
 L  c493    
 L  c494    
 G  c495    
 L  c496    
 L  c497    
 L  c498    
 L  c499    
 G  c500    
 L  c501    
 L  c502    
 L  c503    
 L  c504    
 G  c505    
 L  c506    
 L  c507    
 L  c508    
 L  c509    
 G  c510    
 L  c511    
 L  c512    
 L  c513    
 L  c514    
 G  c515    
 L  c516    
 L  c517    
 L  c518    
 L  c519    
 G  c520    
 L  c521    
 L  c522    
 L  c523    
 L  c524    
 G  c525    
 L  c526    
 L  c527    
 L  c528    
 L  c529    
 G  c530    
 L  c531    
 L  c532    
 L  c533    
 L  c534    
 G  c535    
 G  c536    
 L  c537    
 G  c538    
 G  c539    
 L  c540    
 G  c541    
 G  c542    
 L  c543    
 G  c544    
 G  c545    
 L  c546    
 G  c547    
 G  c548    
 L  c549    
 G  c550    
 G  c551    
 L  c552    
 G  c553    
 G  c554    
 L  c555    
 G  c556    
 G  c557    
 L  c558    
 G  c559    
 G  c560    
 L  c561    
 G  c562    
 G  c563    
 L  c564    
 G  c565    
 G  c566    
 L  c567    
 G  c568    
 G  c569    
 L  c570    
 G  c571    
 G  c572    
 L  c573    
 G  c574    
 G  c575    
 L  c576    
 G  c577    
 G  c578    
 L  c579    
 G  c580    
 G  c581    
 L  c582    
 G  c583    
 G  c584    
 G  c585    
 G  c586    
 G  c587    
 G  c588    
 G  c589    
 G  c590    
 G  c591    
 G  c592    
 G  c593    
 G  c594    
 E  c595    
 E  c596    
 E  c597    
 E  c598    
 E  c599    
 E  c600    
 E  c601    
 E  c602    
 E  c603    
 E  c604    
 E  c605    
 E  c606    
 E  c607    
 E  c608    
 E  c609    
 E  c610    
 E  c611    
 E  c612    
 E  c613    
 E  c614    
 E  c615    
 E  c616    
 E  c617    
 E  c618    
 E  c619    
 E  c620    
 E  c621    
 E  c622    
 E  c623    
 E  c624    
 E  c625    
 E  c626    
 E  c627    
 G  c628    
 G  c629    
 G  c630    
 G  c631    
 G  c632    
 G  c633    
 G  c634    
 L  c635    
 L  c636    
 E  c637    
 E  c638    
 L  c639    
 L  c640    
 L  c641    
 L  c642    
 L  c643    
 L  c644    
 G  c645    
 G  c646    
 G  c647    
 G  c648    
 G  c649    
 G  c650    
 G  c651    
 G  c652    
 G  c653    
 G  c654    
 G  c655    
 G  c656    
 G  c657    
 L  c658    
 L  c659    
 E  c660    
 E  c661    
 L  c662    
 L  c663    
 L  c664    
 L  c665    
 L  c666    
 L  c667    
 G  c668    
 G  c669    
 G  c670    
 G  c671    
 G  c672    
 G  c673    
 G  c674    
 G  c675    
 G  c676    
 G  c677    
 G  c678    
 G  c679    
 G  c680    
 L  c681    
 L  c682    
 E  c683    
 E  c684    
 L  c685    
 L  c686    
 L  c687    
 L  c688    
 L  c689    
 L  c690    
 G  c691    
 G  c692    
 G  c693    
 G  c694    
 G  c695    
 G  c696    
 E  c697    
 E  c698    
 G  c699    
 L  c700    
 L  c701    
 L  c702    
 G  c703    
 L  c704    
 G  c705    
 L  c706    
 L  c707    
 G  c708    
 L  c709    
 G  c710    
 L  c711    
 L  c712    
 G  c713    
 L  c714    
 G  c715    
 L  c716    
 L  c717    
 G  c718    
 L  c719    
 G  c720    
 L  c721    
 L  c722    
 G  c723    
 L  c724    
 G  c725    
 L  c726    
 L  c727    
 G  c728    
 L  c729    
 G  c730    
 L  c731    
 L  c732    
 G  c733    
 L  c734    
 G  c735    
 L  c736    
 L  c737    
 G  c738    
 L  c739    
 G  c740    
 L  c741    
 L  c742    
 G  c743    
 L  c744    
 G  c745    
 L  c746    
 L  c747    
 G  c748    
 L  c749    
 G  c750    
 L  c751    
 L  c752    
 G  c753    
 L  c754    
 G  c755    
 L  c756    
 L  c757    
 G  c758    
 L  c759    
 G  c760    
 L  c761    
 L  c762    
 G  c763    
 L  c764    
 G  c765    
 L  c766    
 L  c767    
 L  c768    
 L  c769    
 G  c770    
 L  c771    
 L  c772    
 L  c773    
 L  c774    
 L  c775    
 G  c776    
 L  c777    
 G  c778    
 L  c779    
 L  c780    
 L  c781    
 L  c782    
 G  c783    
 L  c784    
 L  c785    
 L  c786    
 L  c787    
 L  c788    
 G  c789    
 L  c790    
 G  c791    
 L  c792    
 L  c793    
 L  c794    
 L  c795    
 G  c796    
 L  c797    
 L  c798    
 L  c799    
 L  c800    
 G  c801    
 L  c802    
 L  c803    
 L  c804    
 L  c805    
 G  c806    
 L  c807    
 L  c808    
 L  c809    
 L  c810    
 L  c811    
 G  c812    
 L  c813    
 G  c814    
 L  c815    
 L  c816    
 L  c817    
 L  c818    
 L  c819    
 L  c820    
 L  c821    
 G  c822    
 L  c823    
 L  c824    
 L  c825    
 L  c826    
 L  c827    
 L  c828    
 L  c829    
 L  c830    
 G  c831    
 L  c832    
 G  c833    
 L  c834    
 L  c835    
 L  c836    
 L  c837    
 L  c838    
 L  c839    
 L  c840    
 G  c841    
 L  c842    
 L  c843    
 L  c844    
 L  c845    
 L  c846    
 L  c847    
 L  c848    
 L  c849    
 G  c850    
 L  c851    
 G  c852    
 L  c853    
 L  c854    
 L  c855    
 L  c856    
 L  c857    
 L  c858    
 L  c859    
 G  c860    
 L  c861    
 L  c862    
 L  c863    
 L  c864    
 L  c865    
 L  c866    
 L  c867    
 G  c868    
 L  c869    
 L  c870    
 L  c871    
 L  c872    
 L  c873    
 L  c874    
 L  c875    
 G  c876    
 L  c877    
 L  c878    
 L  c879    
 L  c880    
 L  c881    
 L  c882    
 L  c883    
 L  c884    
 G  c885    
 L  c886    
 G  c887    
 L  c888    
 L  c889    
 L  c890    
 L  c891    
 G  c892    
 L  c893    
 L  c894    
 L  c895    
 L  c896    
 L  c897    
 G  c898    
 L  c899    
 G  c900    
 L  c901    
 L  c902    
 L  c903    
 L  c904    
 G  c905    
 L  c906    
 L  c907    
 L  c908    
 L  c909    
 L  c910    
 G  c911    
 L  c912    
 G  c913    
 L  c914    
 L  c915    
 L  c916    
 L  c917    
 G  c918    
 L  c919    
 L  c920    
 L  c921    
 L  c922    
 G  c923    
 L  c924    
 L  c925    
 L  c926    
 L  c927    
 G  c928    
 L  c929    
 L  c930    
 L  c931    
 L  c932    
 L  c933    
 L  c934    
 L  c935    
 G  c936    
 L  c937    
 L  c938    
 L  c939    
 L  c940    
 G  c941    
 L  c942    
 L  c943    
 L  c944    
 L  c945    
 G  c946    
 L  c947    
 L  c948    
 L  c949    
 L  c950    
 G  c951    
 L  c952    
 L  c953    
 L  c954    
 L  c955    
 G  c956    
 L  c957    
 L  c958    
 L  c959    
 L  c960    
 G  c961    
 L  c962    
 L  c963    
 L  c964    
 L  c965    
 G  c966    
 L  c967    
 L  c968    
 L  c969    
 L  c970    
 G  c971    
 L  c972    
 L  c973    
 L  c974    
 L  c975    
 G  c976    
 L  c977    
 L  c978    
 L  c979    
 L  c980    
 G  c981    
 L  c982    
 L  c983    
 L  c984    
 L  c985    
 G  c986    
 L  c987    
 L  c988    
 L  c989    
 L  c990    
 G  c991    
 L  c992    
 L  c993    
 L  c994    
 L  c995    
 G  c996    
 L  c997    
 L  c998    
 L  c999    
 L  c1000   
 G  c1001   
 L  c1002   
 L  c1003   
 L  c1004   
 L  c1005   
 G  c1006   
 L  c1007   
 L  c1008   
 L  c1009   
 L  c1010   
 G  c1011   
 L  c1012   
 L  c1013   
 L  c1014   
 L  c1015   
 G  c1016   
 L  c1017   
 L  c1018   
 L  c1019   
 L  c1020   
 G  c1021   
 L  c1022   
 L  c1023   
 L  c1024   
 L  c1025   
 G  c1026   
 L  c1027   
 L  c1028   
 L  c1029   
 L  c1030   
 G  c1031   
 L  c1032   
 L  c1033   
 L  c1034   
 L  c1035   
 G  c1036   
 L  c1037   
 L  c1038   
 L  c1039   
 L  c1040   
 G  c1041   
 L  c1042   
 L  c1043   
 L  c1044   
 L  c1045   
 G  c1046   
 L  c1047   
 L  c1048   
 L  c1049   
 L  c1050   
 G  c1051   
 L  c1052   
 L  c1053   
 L  c1054   
 L  c1055   
 G  c1056   
 G  c1057   
 L  c1058   
 G  c1059   
 G  c1060   
 L  c1061   
 G  c1062   
 G  c1063   
 L  c1064   
 G  c1065   
 G  c1066   
 L  c1067   
 G  c1068   
 G  c1069   
 L  c1070   
 G  c1071   
 G  c1072   
 L  c1073   
 G  c1074   
 G  c1075   
 L  c1076   
 G  c1077   
 G  c1078   
 L  c1079   
 G  c1080   
 G  c1081   
 L  c1082   
 G  c1083   
 G  c1084   
 L  c1085   
 G  c1086   
 G  c1087   
 L  c1088   
 G  c1089   
 G  c1090   
 L  c1091   
 G  c1092   
 G  c1093   
 L  c1094   
 G  c1095   
 G  c1096   
 L  c1097   
 G  c1098   
 G  c1099   
 L  c1100   
 G  c1101   
 G  c1102   
 L  c1103   
 G  c1104   
 G  c1105   
 G  c1106   
 G  c1107   
 G  c1108   
 G  c1109   
 G  c1110   
 G  c1111   
 G  c1112   
 G  c1113   
 G  c1114   
 G  c1115   
 E  c1116   
 E  c1117   
 E  c1118   
 E  c1119   
 E  c1120   
 E  c1121   
 E  c1122   
 E  c1123   
 E  c1124   
 E  c1125   
 E  c1126   
 E  c1127   
 E  c1128   
 E  c1129   
 E  c1130   
 E  c1131   
 E  c1132   
 E  c1133   
 E  c1134   
 E  c1135   
 E  c1136   
 E  c1137   
 E  c1138   
 E  c1139   
 E  c1140   
 E  c1141   
 E  c1142   
 E  c1143   
 E  c1144   
 E  c1145   
 E  c1146   
 E  c1147   
 E  c1148   
 L  c1149   
 L  c1150   
 L  c1151   
 L  c1152   
 L  c1153   
 L  c1154   
 L  c1155   
 L  c1156   
 L  c1157   
 L  c1158   
 L  c1159   
 L  c1160   
 L  c1161   
 L  c1162   
 L  c1163   
 L  c1164   
 L  c1165   
 L  c1166   
 L  c1167   
 L  c1168   
 L  c1169   
 L  c1170   
 L  c1171   
 L  c1172   
 L  c1173   
 L  c1174   
 L  c1175   
 L  c1176   
 L  c1177   
 L  c1178   
 L  c1179   
 L  c1180   
 L  c1181   
 L  c1182   
 E  c1183   
 L  c1184   
 E  c1185   
 L  c1186   
 E  c1187   
 L  c1188   
 E  c1189   
 L  c1190   
 E  c1191   
 L  c1192   
 E  c1193   
 L  c1194   
 E  c1195   
 L  c1196   
 E  c1197   
 L  c1198   
 E  c1199   
 L  c1200   
 E  c1201   
 L  c1202   
 E  c1203   
 L  c1204   
 E  c1205   
 L  c1206   
 E  c1207   
 L  c1208   
 E  c1209   
 L  c1210   
 E  c1211   
 L  c1212   
 E  c1213   
 L  c1214   
 E  c1215   
 L  c1216   
 E  c1217   
 L  c1218   
 E  c1219   
 L  c1220   
 E  c1221   
 L  c1222   
 E  c1223   
 L  c1224   
 E  c1225   
 L  c1226   
 E  c1227   
 L  c1228   
 E  c1229   
 L  c1230   
 L  c1231   
 G  c1232   
 L  c1233   
 L  c1234   
 L  c1235   
 G  c1236   
 L  c1237   
 G  c1238   
 L  c1239   
 G  c1240   
 L  c1241   
 L  c1242   
 L  c1243   
 G  c1244   
 L  c1245   
 G  c1246   
 L  c1247   
 G  c1248   
 L  c1249   
 L  c1250   
 L  c1251   
 G  c1252   
 L  c1253   
 G  c1254   
 L  c1255   
 G  c1256   
 L  c1257   
 L  c1258   
 L  c1259   
 G  c1260   
 L  c1261   
 G  c1262   
 L  c1263   
 G  c1264   
 L  c1265   
 L  c1266   
 L  c1267   
 G  c1268   
 L  c1269   
 G  c1270   
 L  c1271   
 G  c1272   
 L  c1273   
 L  c1274   
 L  c1275   
 G  c1276   
 L  c1277   
 G  c1278   
 L  c1279   
 G  c1280   
 L  c1281   
 L  c1282   
 L  c1283   
 G  c1284   
 L  c1285   
 G  c1286   
 L  c1287   
 G  c1288   
 L  c1289   
 L  c1290   
 L  c1291   
 G  c1292   
 L  c1293   
 G  c1294   
 E  c1295   
 L  c1296   
 L  c1297   
 G  c1298   
 L  c1299   
 L  c1300   
 G  c1301   
 L  c1302   
 L  c1303   
 G  c1304   
 L  c1305   
 L  c1306   
 G  c1307   
 L  c1308   
 L  c1309   
 L  c1310   
 L  c1311   
 E  c1312   
 E  c1313   
 L  c1314   
 E  c1315   
 E  c1316   
 L  c1317   
 E  c1318   
 E  c1319   
 L  c1320   
 E  t_definition_root_ZN_ac_3
 E  t_definition_non_root_ZN_ac_3
 E  t_definition_root_ZN_nn_3
 E  t_definition_non_root_ZN_nn_3
 E  t_definition_root_ZN_pp_3
 E  t_definition_non_root_ZN_pp_3
 E  t_definition_root_ZN_ac_6
 E  t_definition_non_root_ZN_ac_6
 E  t_definition_root_ZN_nn_6
 E  t_definition_non_root_ZN_nn_6
 E  t_definition_root_ZN_pp_6
 E  t_definition_non_root_ZN_pp_6
 E  t_definition_root_ZN_ac_9
 E  t_definition_non_root_ZN_ac_9
 E  t_definition_root_ZN_nn_9
 E  t_definition_non_root_ZN_nn_9
 E  t_definition_root_ZN_pp_9
 E  t_definition_non_root_ZN_pp_9
 E  t_definition_root_I_ac_3
 E  t_definition_non_root_I_ac_3
 E  t_definition_root_I_nn_3
 E  t_definition_non_root_I_nn_3
 E  t_definition_root_I_pp_3
 E  t_definition_non_root_I_pp_3
 E  t_definition_root_I_ac_6
 E  t_definition_non_root_I_ac_6
 E  t_definition_root_I_nn_6
 E  t_definition_non_root_I_nn_6
 E  t_definition_root_I_pp_6
 E  t_definition_non_root_I_pp_6
 E  t_definition_root_I_ac_9
 E  t_definition_non_root_I_ac_9
 E  t_definition_root_I_nn_9
 E  t_definition_non_root_I_nn_9
 E  t_definition_root_I_pp_9
 E  t_definition_non_root_I_pp_9
COLUMNS
    MARKER    'MARKER'                 'INTORG'
    B0(6)     c0        1
    B0(6)     c2        1
    B0(6)     c3        1
    B0(6)     c4        1
    B0(6)     c13       1
    B0(6)     c14       1
    B1(6)     c1        1
    B1(6)     c2        1
    B1(6)     c5        1
    B1(6)     c6        1
    B1(6)     c13       1
    B1(6)     c14       1
    B2(14)    c5        -1
    B2(14)    c15       1
    B2(14)    c16       1
    B2(14)    c33       1
    B2(14)    c59       -1
    B2(14)    c61       -3
    B2(14)    c67       3
    B2(14)    c73       -1
    B2(14)    c74       -1
    B2(14)    c80       -1
    B2(14)    c81       -1
    B2(14)    c113      -1
    B2(14)    c114      -1
    B2(14)    c116      -1
    B3(2)     c21       1
    B3(2)     c33       1
    B4(10)    c17       1
    B4(10)    c18       1
    B4(10)    c33       1
    B4(10)    c62       -1
    B4(10)    c64       -3
    B4(10)    c76       -1
    B4(10)    c77       -1
    B4(10)    c634      -1
    B4(10)    c635      -1
    B4(10)    c637      -1
    B5(4)     c3        -1
    B5(4)     c19       1
    B5(4)     c20       1
    B5(4)     c33       1
    B6(4)     c35       1
    B6(4)     c136      -1
    B6(4)     c137      -1
    B6(4)     c139      -1
    B7(22)    c14       1
    B7(22)    c15       1
    B7(22)    c16       1
    B7(22)    c17       1
    B7(22)    c18       1
    B7(22)    c19       1
    B7(22)    c20       1
    B7(22)    c21       1
    B7(22)    c22       1
    B7(22)    c25       -1
    B7(22)    c26       -1
    B7(22)    c27       -1
    B7(22)    c28       -1
    B7(22)    c29       -1
    B7(22)    c30       -1
    B7(22)    c35       1
    B7(22)    c42       -1
    B7(22)    c43       1
    B7(22)    c44       -1
    B7(22)    c45       1
    B7(22)    c54       -1
    B7(22)    c56       -1
    B8(9)     c2        -1
    B8(9)     c35       1
    B8(9)     c47       -1
    B8(9)     c48       1
    B8(9)     c49       -1
    B8(9)     c50       1
    B8(9)     c657      -1
    B8(9)     c658      -1
    B8(9)     c660      -1
    B9(1)     c35       1
    B10(14)   c4        -1
    B10(14)   c17       1
    B10(14)   c19       1
    B10(14)   c37       1
    B10(14)   c60       -1
    B10(14)   c61       -1
    B10(14)   c67       -1
    B10(14)   c68       -1
    B10(14)   c72       -1
    B10(14)   c74       -3
    B10(14)   c80       3
    B10(14)   c159      -1
    B10(14)   c160      -1
    B10(14)   c162      -1
    B11(2)    c22       1
    B11(2)    c37       1
    B12(10)   c15       1
    B12(10)   c20       1
    B12(10)   c37       1
    B12(10)   c63       -1
    B12(10)   c64       -1
    B12(10)   c75       -1
    B12(10)   c77       -3
    B12(10)   c680      -1
    B12(10)   c681      -1
    B12(10)   c683      -1
    B13(4)    c6        -1
    B13(4)    c16       1
    B13(4)    c18       1
    B13(4)    c37       1
    B14(6)    c7        1
    B14(6)    c8        1
    B14(6)    c9        1
    B14(6)    c10       1
    B14(6)    c23       1
    B14(6)    c24       1
    B15(6)    c7        1
    B15(6)    c8        1
    B15(6)    c11       1
    B15(6)    c12       1
    B15(6)    c23       1
    B15(6)    c24       1
    B16(13)   c11       -1
    B16(13)   c25       1
    B16(13)   c26       1
    B16(13)   c34       1
    B16(13)   c65       -1
    B16(13)   c67       -3
    B16(13)   c73       -1
    B16(13)   c74       -1
    B16(13)   c80       -1
    B16(13)   c81       -1
    B16(13)   c113      -1
    B16(13)   c115      -1
    B16(13)   c117      -1
    B17(2)    c31       1
    B17(2)    c34       1
    B18(10)   c27       1
    B18(10)   c28       1
    B18(10)   c34       1
    B18(10)   c69       -1
    B18(10)   c70       -3
    B18(10)   c83       -1
    B18(10)   c84       -1
    B18(10)   c634      -1
    B18(10)   c636      -1
    B18(10)   c638      -1
    B19(4)    c9        -1
    B19(4)    c29       1
    B19(4)    c30       1
    B19(4)    c34       1
    B20(4)    c36       1
    B20(4)    c136      -1
    B20(4)    c138      -1
    B20(4)    c140      -1
    B21(22)   c15       -1
    B21(22)   c16       -1
    B21(22)   c17       -1
    B21(22)   c18       -1
    B21(22)   c19       -1
    B21(22)   c20       -1
    B21(22)   c24       1
    B21(22)   c25       1
    B21(22)   c26       1
    B21(22)   c27       1
    B21(22)   c28       1
    B21(22)   c29       1
    B21(22)   c30       1
    B21(22)   c31       1
    B21(22)   c32       1
    B21(22)   c36       1
    B21(22)   c42       1
    B21(22)   c43       -1
    B21(22)   c44       -1
    B21(22)   c45       1
    B21(22)   c55       -1
    B21(22)   c56       -1
    B22(9)    c8        -1
    B22(9)    c36       1
    B22(9)    c47       1
    B22(9)    c48       -1
    B22(9)    c49       -1
    B22(9)    c50       1
    B22(9)    c657      -1
    B22(9)    c659      -1
    B22(9)    c661      -1
    B23(1)    c36       1
    B24(13)   c10       -1
    B24(13)   c27       1
    B24(13)   c29       1
    B24(13)   c38       1
    B24(13)   c60       -1
    B24(13)   c61       -1
    B24(13)   c67       -1
    B24(13)   c68       -1
    B24(13)   c78       -1
    B24(13)   c80       -3
    B24(13)   c159      -1
    B24(13)   c161      -1
    B24(13)   c163      -1
    B25(2)    c32       1
    B25(2)    c38       1
    B26(10)   c25       1
    B26(10)   c30       1
    B26(10)   c38       1
    B26(10)   c70       -1
    B26(10)   c71       -1
    B26(10)   c82       -1
    B26(10)   c83       -3
    B26(10)   c680      -1
    B26(10)   c682      -1
    B26(10)   c684      -1
    B27(4)    c12       -1
    B27(4)    c26       1
    B27(4)    c28       1
    B27(4)    c38       1
    B28(6)    c40       -1
    B28(6)    c41       -1
    B28(6)    c52       1
    B28(6)    c57       1
    B28(6)    c105      1
    B28(6)    c106      1
    B29(4)    c46       1
    B29(4)    c51       1
    B29(4)    c53       1
    B29(4)    c58       1
    B30(5)    c39       -1
    B30(5)    c41       -1
    B30(5)    c54       1
    B30(5)    c55       1
    B30(5)    c56       1
    B31(3)    c39       1
    B31(3)    c40       1
    B31(3)    c41       1
    B32(6)    c42       1
    B32(6)    c43       1
    B32(6)    c44       1
    B32(6)    c45       1
    B32(6)    c46       -1
    B32(6)    c53       -1
    B33(6)    c47       1
    B33(6)    c48       1
    B33(6)    c49       1
    B33(6)    c50       1
    B33(6)    c51       -1
    B33(6)    c53       -1
    B34(6)    c59       1
    B34(6)    c60       1
    B34(6)    c61       3
    B34(6)    c66       1
    B34(6)    c85       -1
    B34(6)    c87       -1
    B35(5)    c62       1
    B35(5)    c63       1
    B35(5)    c64       3
    B35(5)    c85       -1
    B35(5)    c87       -1
    B36(6)    c65       1
    B36(6)    c66       1
    B36(6)    c67       3
    B36(6)    c68       1
    B36(6)    c88       -1
    B36(6)    c90       -1
    B37(5)    c69       1
    B37(5)    c70       3
    B37(5)    c71       1
    B37(5)    c88       -1
    B37(5)    c90       -1
    B38(6)    c72       1
    B38(6)    c73       1
    B38(6)    c74       3
    B38(6)    c79       1
    B38(6)    c86       -1
    B38(6)    c87       -1
    B39(5)    c75       1
    B39(5)    c76       1
    B39(5)    c77       3
    B39(5)    c86       -1
    B39(5)    c87       -1
    B40(6)    c78       1
    B40(6)    c79       1
    B40(6)    c80       3
    B40(6)    c81       1
    B40(6)    c89       -1
    B40(6)    c90       -1
    B41(5)    c82       1
    B41(5)    c83       3
    B41(5)    c84       1
    B41(5)    c89       -1
    B41(5)    c90       -1
    B42(5)    c85       1
    B42(5)    c86       1
    B42(5)    c87       1
    B42(5)    c105      1
    B42(5)    c106      1
    B43(5)    c88       1
    B43(5)    c89       1
    B43(5)    c90       1
    B43(5)    c105      1
    B43(5)    c106      1
    B44(4)    c95       1
    B44(4)    c96       1
    B44(4)    c97       3
    B44(4)    c106      1
    B45(4)    c91       1
    B45(4)    c92       3
    B45(4)    c95       -1
    B45(4)    c97       -1
    B46(4)    c93       1
    B46(4)    c94       3
    B46(4)    c96       -1
    B46(4)    c97       -1
    B47(4)    c102      1
    B47(4)    c103      1
    B47(4)    c104      3
    B47(4)    c106      1
    B48(4)    c98       1
    B48(4)    c99       3
    B48(4)    c102      -1
    B48(4)    c104      -1
    B49(4)    c100      1
    B49(4)    c101      3
    B49(4)    c103      -1
    B49(4)    c104      -1
    I50(2)    OBJ       3
    I50(2)    c1313     1
    I50(2)    c1314     1
    I51(1)    OBJ       12
    I51(1)    c1312     1
    I52(3)    c1183     1
    I52(3)    c1184     1
    I52(3)    c1313     -1
    I53(3)    c1185     1
    I53(3)    c1186     1
    I53(3)    c1313     -1
    I54(3)    c1187     1
    I54(3)    c1188     1
    I54(3)    c1313     -1
    I55(3)    c1189     1
    I55(3)    c1190     1
    I55(3)    c1313     -1
    I56(3)    c1191     1
    I56(3)    c1192     1
    I56(3)    c1312     -1
    I57(3)    c1193     1
    I57(3)    c1194     1
    I57(3)    c1312     -1
    I58(3)    c1195     1
    I58(3)    c1196     1
    I58(3)    c1312     -1
    I59(3)    c1197     1
    I59(3)    c1198     1
    I59(3)    c1312     -1
    I60(2)    OBJ       3
    I60(2)    c1316     1
    I60(2)    c1317     1
    I61(1)    OBJ       12
    I61(1)    c1315     1
    I62(3)    c1199     1
    I62(3)    c1200     1
    I62(3)    c1316     -1
    I63(3)    c1201     1
    I63(3)    c1202     1
    I63(3)    c1316     -1
    I64(3)    c1203     1
    I64(3)    c1204     1
    I64(3)    c1316     -1
    I65(3)    c1205     1
    I65(3)    c1206     1
    I65(3)    c1316     -1
    I66(3)    c1207     1
    I66(3)    c1208     1
    I66(3)    c1315     -1
    I67(3)    c1209     1
    I67(3)    c1210     1
    I67(3)    c1315     -1
    I68(3)    c1211     1
    I68(3)    c1212     1
    I68(3)    c1315     -1
    I69(3)    c1213     1
    I69(3)    c1214     1
    I69(3)    c1315     -1
    I70(2)    OBJ       3
    I70(2)    c1319     1
    I70(2)    c1320     1
    I71(1)    OBJ       12
    I71(1)    c1318     1
    I72(3)    c1215     1
    I72(3)    c1216     1
    I72(3)    c1319     -1
    I73(3)    c1217     1
    I73(3)    c1218     1
    I73(3)    c1319     -1
    I74(3)    c1219     1
    I74(3)    c1220     1
    I74(3)    c1319     -1
    I75(3)    c1221     1
    I75(3)    c1222     1
    I75(3)    c1319     -1
    I76(3)    c1223     1
    I76(3)    c1224     1
    I76(3)    c1318     -1
    I77(3)    c1225     1
    I77(3)    c1226     1
    I77(3)    c1318     -1
    I78(3)    c1227     1
    I78(3)    c1228     1
    I78(3)    c1318     -1
    I79(3)    c1229     1
    I79(3)    c1230     1
    I79(3)    c1318     -1
    B80(5)    OBJ       1
    B80(5)    c561      -1
    B80(5)    c573      -1
    B80(5)    c1082     -1
    B80(5)    c1094     -1
    B80(5)    c1184     1
    B81(5)    OBJ       1
    B81(5)    c564      -1
    B81(5)    c576      -1
    B81(5)    c1085     -1
    B81(5)    c1097     -1
    B81(5)    c1186     1
    B82(5)    OBJ       1
    B82(5)    c567      -1
    B82(5)    c579      -1
    B82(5)    c1088     -1
    B82(5)    c1100     -1
    B82(5)    c1188     1
    B83(5)    OBJ       1
    B83(5)    c570      -1
    B83(5)    c582      -1
    B83(5)    c1091     -1
    B83(5)    c1103     -1
    B83(5)    c1190     1
    B84(1)    OBJ       1
    B84(1)    c1200     1
    B85(1)    OBJ       1
    B85(1)    c1202     1
    B86(1)    OBJ       1
    B86(1)    c1204     1
    B87(1)    OBJ       1
    B87(1)    c1206     1
    B88(5)    OBJ       1
    B88(5)    c537      -1
    B88(5)    c549      -1
    B88(5)    c1058     -1
    B88(5)    c1070     -1
    B88(5)    c1216     1
    B89(5)    OBJ       1
    B89(5)    c540      -1
    B89(5)    c552      -1
    B89(5)    c1061     -1
    B89(5)    c1073     -1
    B89(5)    c1218     1
    B90(5)    OBJ       1
    B90(5)    c543      -1
    B90(5)    c555      -1
    B90(5)    c1064     -1
    B90(5)    c1076     -1
    B90(5)    c1220     1
    B91(5)    OBJ       1
    B91(5)    c546      -1
    B91(5)    c558      -1
    B91(5)    c1067     -1
    B91(5)    c1079     -1
    B91(5)    c1222     1
    B92(1)    OBJ       6
    B92(1)    c1192     1
    B93(1)    OBJ       6
    B93(1)    c1194     1
    B94(1)    OBJ       6
    B94(1)    c1196     1
    B95(1)    OBJ       6
    B95(1)    c1198     1
    B96(1)    OBJ       6
    B96(1)    c1208     1
    B97(1)    OBJ       6
    B97(1)    c1210     1
    B98(1)    OBJ       6
    B98(1)    c1212     1
    B99(1)    OBJ       6
    B99(1)    c1214     1
    B100(1)   OBJ       6
    B100(1)   c1224     1
    B101(1)   OBJ       6
    B101(1)   c1226     1
    B102(1)   OBJ       6
    B102(1)   c1228     1
    B103(1)   OBJ       6
    B103(1)   c1230     1
    B104(18)  c245      -1
    B104(18)  c271      -1
    B104(18)  c294      -1
    B104(18)  c297      -1
    B104(18)  c332      -1
    B104(18)  c335      -1
    B104(18)  c367      -1
    B104(18)  c393      -1
    B104(18)  c535      1
    B104(18)  c547      1
    B104(18)  c561      -1
    B104(18)  c573      -1
    B104(18)  c1183     -1
    B104(18)  c1237     1
    B104(18)  c1238     1
    B104(18)  c1242     -1
    B104(18)  c1243     -1
    B104(18)  c1244     -3.3333333333333331e-01
    B105(18)  c250      -1
    B105(18)  c276      -1
    B105(18)  c302      -1
    B105(18)  c305      -1
    B105(18)  c340      -1
    B105(18)  c343      -1
    B105(18)  c372      -1
    B105(18)  c398      -1
    B105(18)  c538      1
    B105(18)  c550      1
    B105(18)  c564      -1
    B105(18)  c576      -1
    B105(18)  c1185     -1
    B105(18)  c1253     1
    B105(18)  c1254     1
    B105(18)  c1258     -1
    B105(18)  c1259     -1
    B105(18)  c1260     -3.3333333333333331e-01
    B106(18)  c258      -1
    B106(18)  c281      -1
    B106(18)  c313      -1
    B106(18)  c316      -1
    B106(18)  c348      -1
    B106(18)  c351      -1
    B106(18)  c380      -1
    B106(18)  c403      -1
    B106(18)  c541      1
    B106(18)  c553      1
    B106(18)  c567      -1
    B106(18)  c579      -1
    B106(18)  c1187     -1
    B106(18)  c1269     1
    B106(18)  c1270     1
    B106(18)  c1274     -1
    B106(18)  c1275     -1
    B106(18)  c1276     -3.3333333333333331e-01
    B107(18)  c263      -1
    B107(18)  c286      -1
    B107(18)  c321      -1
    B107(18)  c324      -1
    B107(18)  c356      -1
    B107(18)  c359      -1
    B107(18)  c385      -1
    B107(18)  c408      -1
    B107(18)  c544      1
    B107(18)  c556      1
    B107(18)  c570      -1
    B107(18)  c582      -1
    B107(18)  c1189     -1
    B107(18)  c1285     1
    B107(18)  c1286     1
    B107(18)  c1290     -1
    B107(18)  c1291     -1
    B107(18)  c1292     -3.3333333333333331e-01
    B108(18)  c246      -1
    B108(18)  c272      -1
    B108(18)  c295      -1
    B108(18)  c298      -1
    B108(18)  c333      -1
    B108(18)  c336      -1
    B108(18)  c368      -1
    B108(18)  c394      -1
    B108(18)  c536      1
    B108(18)  c548      1
    B108(18)  c559      1
    B108(18)  c571      1
    B108(18)  c1199     -1
    B108(18)  c1237     1
    B108(18)  c1238     1
    B108(18)  c1242     -1
    B108(18)  c1243     -1
    B108(18)  c1244     -3.3333333333333331e-01
    B109(18)  c251      -1
    B109(18)  c277      -1
    B109(18)  c303      -1
    B109(18)  c306      -1
    B109(18)  c341      -1
    B109(18)  c344      -1
    B109(18)  c373      -1
    B109(18)  c399      -1
    B109(18)  c539      1
    B109(18)  c551      1
    B109(18)  c562      1
    B109(18)  c574      1
    B109(18)  c1201     -1
    B109(18)  c1253     1
    B109(18)  c1254     1
    B109(18)  c1258     -1
    B109(18)  c1259     -1
    B109(18)  c1260     -3.3333333333333331e-01
    B110(18)  c259      -1
    B110(18)  c282      -1
    B110(18)  c314      -1
    B110(18)  c317      -1
    B110(18)  c349      -1
    B110(18)  c352      -1
    B110(18)  c381      -1
    B110(18)  c404      -1
    B110(18)  c542      1
    B110(18)  c554      1
    B110(18)  c565      1
    B110(18)  c577      1
    B110(18)  c1203     -1
    B110(18)  c1269     1
    B110(18)  c1270     1
    B110(18)  c1274     -1
    B110(18)  c1275     -1
    B110(18)  c1276     -3.3333333333333331e-01
    B111(18)  c264      -1
    B111(18)  c287      -1
    B111(18)  c322      -1
    B111(18)  c325      -1
    B111(18)  c357      -1
    B111(18)  c360      -1
    B111(18)  c386      -1
    B111(18)  c409      -1
    B111(18)  c545      1
    B111(18)  c557      1
    B111(18)  c568      1
    B111(18)  c580      1
    B111(18)  c1205     -1
    B111(18)  c1285     1
    B111(18)  c1286     1
    B111(18)  c1290     -1
    B111(18)  c1291     -1
    B111(18)  c1292     -3.3333333333333331e-01
    B112(18)  c247      -1
    B112(18)  c273      -1
    B112(18)  c296      -1
    B112(18)  c299      -1
    B112(18)  c334      -1
    B112(18)  c337      -1
    B112(18)  c369      -1
    B112(18)  c395      -1
    B112(18)  c537      -1
    B112(18)  c549      -1
    B112(18)  c560      1
    B112(18)  c572      1
    B112(18)  c1215     -1
    B112(18)  c1237     1
    B112(18)  c1238     1
    B112(18)  c1242     -1
    B112(18)  c1243     -1
    B112(18)  c1244     -3.3333333333333331e-01
    B113(18)  c252      -1
    B113(18)  c278      -1
    B113(18)  c304      -1
    B113(18)  c307      -1
    B113(18)  c342      -1
    B113(18)  c345      -1
    B113(18)  c374      -1
    B113(18)  c400      -1
    B113(18)  c540      -1
    B113(18)  c552      -1
    B113(18)  c563      1
    B113(18)  c575      1
    B113(18)  c1217     -1
    B113(18)  c1253     1
    B113(18)  c1254     1
    B113(18)  c1258     -1
    B113(18)  c1259     -1
    B113(18)  c1260     -3.3333333333333331e-01
    B114(18)  c260      -1
    B114(18)  c283      -1
    B114(18)  c315      -1
    B114(18)  c318      -1
    B114(18)  c350      -1
    B114(18)  c353      -1
    B114(18)  c382      -1
    B114(18)  c405      -1
    B114(18)  c543      -1
    B114(18)  c555      -1
    B114(18)  c566      1
    B114(18)  c578      1
    B114(18)  c1219     -1
    B114(18)  c1269     1
    B114(18)  c1270     1
    B114(18)  c1274     -1
    B114(18)  c1275     -1
    B114(18)  c1276     -3.3333333333333331e-01
    B115(18)  c265      -1
    B115(18)  c288      -1
    B115(18)  c323      -1
    B115(18)  c326      -1
    B115(18)  c358      -1
    B115(18)  c361      -1
    B115(18)  c387      -1
    B115(18)  c410      -1
    B115(18)  c546      -1
    B115(18)  c558      -1
    B115(18)  c569      1
    B115(18)  c581      1
    B115(18)  c1221     -1
    B115(18)  c1285     1
    B115(18)  c1286     1
    B115(18)  c1290     -1
    B115(18)  c1291     -1
    B115(18)  c1292     -3.3333333333333331e-01
    B116(3)   OBJ       60
    B116(3)   c531      -1
    B116(3)   c532      -1
    B116(3)   c1149     1
    B117(3)   OBJ       60
    B117(3)   c533      -1
    B117(3)   c534      -1
    B117(3)   c1150     1
    B118(2)   c583      1
    B118(2)   c1191     -1
    B119(2)   c586      1
    B119(2)   c1193     -1
    B120(2)   c589      1
    B120(2)   c1195     -1
    B121(2)   c592      1
    B121(2)   c1197     -1
    B122(2)   c584      1
    B122(2)   c1207     -1
    B123(2)   c587      1
    B123(2)   c1209     -1
    B124(2)   c590      1
    B124(2)   c1211     -1
    B125(2)   c593      1
    B125(2)   c1213     -1
    B126(2)   c585      1
    B126(2)   c1223     -1
    B127(2)   c588      1
    B127(2)   c1225     -1
    B128(2)   c591      1
    B128(2)   c1227     -1
    B129(2)   c594      1
    B129(2)   c1229     -1
    I130(42)  c118      1
    I130(42)  c119      1
    I130(42)  c120      1
    I130(42)  c121      -1
    I130(42)  c122      -1
    I130(42)  c123      -1
    I130(42)  c141      1
    I130(42)  c142      1
    I130(42)  c143      1
    I130(42)  c144      -1
    I130(42)  c145      -1
    I130(42)  c146      -1
    I130(42)  c164      1
    I130(42)  c165      1
    I130(42)  c166      1
    I130(42)  c167      -1
    I130(42)  c168      -1
    I130(42)  c169      -1
    I130(42)  c412      1
    I130(42)  c417      1
    I130(42)  c422      1
    I130(42)  c427      1
    I130(42)  c432      1
    I130(42)  c437      1
    I130(42)  c442      1
    I130(42)  c447      1
    I130(42)  c452      1
    I130(42)  c457      1
    I130(42)  c462      1
    I130(42)  c467      1
    I130(42)  c472      1
    I130(42)  c477      1
    I130(42)  c482      1
    I130(42)  c487      1
    I130(42)  c492      1
    I130(42)  c497      1
    I130(42)  c502      1
    I130(42)  c507      1
    I130(42)  c512      1
    I130(42)  c517      1
    I130(42)  c522      1
    I130(42)  c527      1
    I131(42)  c124      1
    I131(42)  c125      1
    I131(42)  c126      1
    I131(42)  c127      -1
    I131(42)  c128      -1
    I131(42)  c129      -1
    I131(42)  c147      1
    I131(42)  c148      1
    I131(42)  c149      1
    I131(42)  c150      -1
    I131(42)  c151      -1
    I131(42)  c152      -1
    I131(42)  c170      1
    I131(42)  c171      1
    I131(42)  c172      1
    I131(42)  c173      -1
    I131(42)  c174      -1
    I131(42)  c175      -1
    I131(42)  c413      -1
    I131(42)  c418      -1
    I131(42)  c423      -1
    I131(42)  c428      -1
    I131(42)  c433      -1
    I131(42)  c438      -1
    I131(42)  c443      -1
    I131(42)  c448      -1
    I131(42)  c453      -1
    I131(42)  c458      -1
    I131(42)  c463      -1
    I131(42)  c468      -1
    I131(42)  c473      -1
    I131(42)  c478      -1
    I131(42)  c483      -1
    I131(42)  c488      -1
    I131(42)  c493      -1
    I131(42)  c498      -1
    I131(42)  c503      -1
    I131(42)  c508      -1
    I131(42)  c513      -1
    I131(42)  c518      -1
    I131(42)  c523      -1
    I131(42)  c528      -1
    B132(43)  c107      1
    B132(43)  c110      1
    B132(43)  c116      1
    B132(43)  c118      3
    B132(43)  c124      -3
    B132(43)  c178      -1
    B132(43)  c179      -1
    B132(43)  c180      -1
    B132(43)  c182      -1
    B132(43)  c240      -2
    B132(43)  c242      -1
    B132(43)  c411      -1
    B132(43)  c416      -1
    B132(43)  c421      -1
    B132(43)  c426      -1
    B132(43)  c431      -1
    B132(43)  c436      -1
    B132(43)  c441      -1
    B132(43)  c446      -1
    B132(43)  c451      -1
    B132(43)  c456      -1
    B132(43)  c461      -1
    B132(43)  c466      -1
    B132(43)  c471      -1
    B132(43)  c476      -1
    B132(43)  c481      -1
    B132(43)  c486      -1
    B132(43)  c491      -1
    B132(43)  c496      -1
    B132(43)  c501      -1
    B132(43)  c506      -1
    B132(43)  c511      -1
    B132(43)  c516      -1
    B132(43)  c521      -1
    B132(43)  c526      -1
    B132(43)  c1239     1
    B132(43)  c1240     1
    B132(43)  c1255     1
    B132(43)  c1256     1
    B132(43)  c1271     1
    B132(43)  c1272     1
    B132(43)  c1287     1
    B132(43)  c1288     1
    B132(43)  t_definition_root_ZN_ac_3  1
    B132(43)  t_definition_root_ZN_nn_3  1
    B132(43)  t_definition_root_ZN_pp_3  1
    B132(43)  t_definition_non_root_ZN_pp_3  -1
    B132(43)  t_definition_root_ZN_ac_6  1
    B132(43)  t_definition_root_ZN_nn_6  1
    B132(43)  t_definition_root_ZN_pp_6  1
    B132(43)  t_definition_root_ZN_ac_9  1
    B132(43)  t_definition_root_ZN_nn_9  1
    B132(43)  t_definition_root_ZN_pp_9  1
    B133(43)  c108      1
    B133(43)  c111      1
    B133(43)  c117      1
    B133(43)  c119      3
    B133(43)  c125      -3
    B133(43)  c178      -1
    B133(43)  c179      -1
    B133(43)  c190      -1
    B133(43)  c192      -1
    B133(43)  c253      -2
    B133(43)  c255      -1
    B133(43)  c411      -1
    B133(43)  c416      -1
    B133(43)  c421      -1
    B133(43)  c426      -1
    B133(43)  c431      -1
    B133(43)  c436      -1
    B133(43)  c441      -1
    B133(43)  c446      -1
    B133(43)  c451      -1
    B133(43)  c456      -1
    B133(43)  c461      -1
    B133(43)  c466      -1
    B133(43)  c471      -1
    B133(43)  c476      -1
    B133(43)  c481      -1
    B133(43)  c486      -1
    B133(43)  c491      -1
    B133(43)  c496      -1
    B133(43)  c501      -1
    B133(43)  c506      -1
    B133(43)  c511      -1
    B133(43)  c516      -1
    B133(43)  c521      -1
    B133(43)  c526      -1
    B133(43)  c1239     1
    B133(43)  c1240     1
    B133(43)  c1255     1
    B133(43)  c1256     1
    B133(43)  c1271     1
    B133(43)  c1272     1
    B133(43)  c1287     1
    B133(43)  c1288     1
    B133(43)  t_definition_root_ZN_ac_3  1
    B133(43)  t_definition_root_ZN_nn_3  1
    B133(43)  t_definition_non_root_ZN_nn_3  -1
    B133(43)  t_definition_root_ZN_pp_3  1
    B133(43)  t_definition_root_ZN_ac_6  1
    B133(43)  t_definition_root_ZN_nn_6  1
    B133(43)  t_definition_root_ZN_pp_6  1
    B133(43)  t_definition_root_ZN_ac_9  1
    B133(43)  t_definition_root_ZN_nn_9  1
    B133(43)  t_definition_root_ZN_pp_9  1
    B134(49)  c109      1
    B134(49)  c112      1
    B134(49)  c113      1
    B134(49)  c114      1
    B134(49)  c115      1
    B134(49)  c116      1
    B134(49)  c117      1
    B134(49)  c120      3
    B134(49)  c126      -3
    B134(49)  c178      -1
    B134(49)  c179      -1
    B134(49)  c185      -1
    B134(49)  c187      -1
    B134(49)  c195      -1
    B134(49)  c197      -1
    B134(49)  c266      -4
    B134(49)  c268      -1
    B134(49)  c411      -1
    B134(49)  c416      -1
    B134(49)  c421      -1
    B134(49)  c426      -1
    B134(49)  c431      -1
    B134(49)  c436      -1
    B134(49)  c441      -1
    B134(49)  c446      -1
    B134(49)  c451      -1
    B134(49)  c456      -1
    B134(49)  c461      -1
    B134(49)  c466      -1
    B134(49)  c471      -1
    B134(49)  c476      -1
    B134(49)  c481      -1
    B134(49)  c486      -1
    B134(49)  c491      -1
    B134(49)  c496      -1
    B134(49)  c501      -1
    B134(49)  c506      -1
    B134(49)  c511      -1
    B134(49)  c516      -1
    B134(49)  c521      -1
    B134(49)  c526      -1
    B134(49)  c1239     1
    B134(49)  c1240     1
    B134(49)  c1255     1
    B134(49)  c1256     1
    B134(49)  c1271     1
    B134(49)  c1272     1
    B134(49)  c1287     1
    B134(49)  c1288     1
    B134(49)  t_definition_root_ZN_ac_3  1
    B134(49)  t_definition_non_root_ZN_ac_3  -1
    B134(49)  t_definition_root_ZN_nn_3  1
    B134(49)  t_definition_root_ZN_pp_3  1
    B134(49)  t_definition_root_ZN_ac_6  1
    B134(49)  t_definition_root_ZN_nn_6  1
    B134(49)  t_definition_root_ZN_pp_6  1
    B134(49)  t_definition_root_ZN_ac_9  1
    B134(49)  t_definition_root_ZN_nn_9  1
    B134(49)  t_definition_root_ZN_pp_9  1
    B135(2)   c107      -1
    B135(2)   c176      1
    B136(2)   c108      -1
    B136(2)   c176      1
    B137(2)   c109      -1
    B137(2)   c176      1
    B138(3)   c110      -1
    B138(3)   c127      -2
    B138(3)   c177      1
    B139(3)   c111      -1
    B139(3)   c128      -2
    B139(3)   c177      1
    B140(3)   c112      -1
    B140(3)   c129      -2
    B140(3)   c177      1
    B141(43)  c130      1
    B141(43)  c133      1
    B141(43)  c139      1
    B141(43)  c141      3
    B141(43)  c147      -3
    B141(43)  c178      -1
    B141(43)  c179      -1
    B141(43)  c200      -1
    B141(43)  c202      -1
    B141(43)  c289      -2
    B141(43)  c291      -1
    B141(43)  c411      -1
    B141(43)  c416      -1
    B141(43)  c421      -1
    B141(43)  c426      -1
    B141(43)  c431      -1
    B141(43)  c436      -1
    B141(43)  c441      -1
    B141(43)  c446      -1
    B141(43)  c451      -1
    B141(43)  c456      -1
    B141(43)  c461      -1
    B141(43)  c466      -1
    B141(43)  c471      -1
    B141(43)  c476      -1
    B141(43)  c481      -1
    B141(43)  c486      -1
    B141(43)  c491      -1
    B141(43)  c496      -1
    B141(43)  c501      -1
    B141(43)  c506      -1
    B141(43)  c511      -1
    B141(43)  c516      -1
    B141(43)  c521      -1
    B141(43)  c526      -1
    B141(43)  c1239     1
    B141(43)  c1240     1
    B141(43)  c1255     1
    B141(43)  c1256     1
    B141(43)  c1271     1
    B141(43)  c1272     1
    B141(43)  c1287     1
    B141(43)  c1288     1
    B141(43)  t_definition_root_ZN_ac_3  1
    B141(43)  t_definition_root_ZN_nn_3  1
    B141(43)  t_definition_root_ZN_pp_3  1
    B141(43)  t_definition_root_ZN_ac_6  1
    B141(43)  t_definition_root_ZN_nn_6  1
    B141(43)  t_definition_root_ZN_pp_6  1
    B141(43)  t_definition_non_root_ZN_pp_6  -1
    B141(43)  t_definition_root_ZN_ac_9  1
    B141(43)  t_definition_root_ZN_nn_9  1
    B141(43)  t_definition_root_ZN_pp_9  1
    B142(43)  c131      1
    B142(43)  c134      1
    B142(43)  c140      1
    B142(43)  c142      3
    B142(43)  c148      -3
    B142(43)  c178      -1
    B142(43)  c179      -1
    B142(43)  c210      -1
    B142(43)  c212      -1
    B142(43)  c308      -2
    B142(43)  c310      -1
    B142(43)  c411      -1
    B142(43)  c416      -1
    B142(43)  c421      -1
    B142(43)  c426      -1
    B142(43)  c431      -1
    B142(43)  c436      -1
    B142(43)  c441      -1
    B142(43)  c446      -1
    B142(43)  c451      -1
    B142(43)  c456      -1
    B142(43)  c461      -1
    B142(43)  c466      -1
    B142(43)  c471      -1
    B142(43)  c476      -1
    B142(43)  c481      -1
    B142(43)  c486      -1
    B142(43)  c491      -1
    B142(43)  c496      -1
    B142(43)  c501      -1
    B142(43)  c506      -1
    B142(43)  c511      -1
    B142(43)  c516      -1
    B142(43)  c521      -1
    B142(43)  c526      -1
    B142(43)  c1239     1
    B142(43)  c1240     1
    B142(43)  c1255     1
    B142(43)  c1256     1
    B142(43)  c1271     1
    B142(43)  c1272     1
    B142(43)  c1287     1
    B142(43)  c1288     1
    B142(43)  t_definition_root_ZN_ac_3  1
    B142(43)  t_definition_root_ZN_nn_3  1
    B142(43)  t_definition_root_ZN_pp_3  1
    B142(43)  t_definition_root_ZN_ac_6  1
    B142(43)  t_definition_root_ZN_nn_6  1
    B142(43)  t_definition_non_root_ZN_nn_6  -1
    B142(43)  t_definition_root_ZN_pp_6  1
    B142(43)  t_definition_root_ZN_ac_9  1
    B142(43)  t_definition_root_ZN_nn_9  1
    B142(43)  t_definition_root_ZN_pp_9  1
    B143(49)  c132      1
    B143(49)  c135      1
    B143(49)  c136      1
    B143(49)  c137      1
    B143(49)  c138      1
    B143(49)  c139      1
    B143(49)  c140      1
    B143(49)  c143      3
    B143(49)  c149      -3
    B143(49)  c178      -1
    B143(49)  c179      -1
    B143(49)  c205      -1
    B143(49)  c207      -1
    B143(49)  c215      -1
    B143(49)  c217      -1
    B143(49)  c327      -4
    B143(49)  c329      -1
    B143(49)  c411      -1
    B143(49)  c416      -1
    B143(49)  c421      -1
    B143(49)  c426      -1
    B143(49)  c431      -1
    B143(49)  c436      -1
    B143(49)  c441      -1
    B143(49)  c446      -1
    B143(49)  c451      -1
    B143(49)  c456      -1
    B143(49)  c461      -1
    B143(49)  c466      -1
    B143(49)  c471      -1
    B143(49)  c476      -1
    B143(49)  c481      -1
    B143(49)  c486      -1
    B143(49)  c491      -1
    B143(49)  c496      -1
    B143(49)  c501      -1
    B143(49)  c506      -1
    B143(49)  c511      -1
    B143(49)  c516      -1
    B143(49)  c521      -1
    B143(49)  c526      -1
    B143(49)  c1239     1
    B143(49)  c1240     1
    B143(49)  c1255     1
    B143(49)  c1256     1
    B143(49)  c1271     1
    B143(49)  c1272     1
    B143(49)  c1287     1
    B143(49)  c1288     1
    B143(49)  t_definition_root_ZN_ac_3  1
    B143(49)  t_definition_root_ZN_nn_3  1
    B143(49)  t_definition_root_ZN_pp_3  1
    B143(49)  t_definition_root_ZN_ac_6  1
    B143(49)  t_definition_non_root_ZN_ac_6  -1
    B143(49)  t_definition_root_ZN_nn_6  1
    B143(49)  t_definition_root_ZN_pp_6  1
    B143(49)  t_definition_root_ZN_ac_9  1
    B143(49)  t_definition_root_ZN_nn_9  1
    B143(49)  t_definition_root_ZN_pp_9  1
    B144(3)   c130      -1
    B144(3)   c144      1
    B144(3)   c176      1
    B145(3)   c131      -1
    B145(3)   c145      1
    B145(3)   c176      1
    B146(3)   c132      -1
    B146(3)   c146      1
    B146(3)   c176      1
    B147(3)   c133      -1
    B147(3)   c150      -1
    B147(3)   c177      1
    B148(3)   c134      -1
    B148(3)   c151      -1
    B148(3)   c177      1
    B149(3)   c135      -1
    B149(3)   c152      -1
    B149(3)   c177      1
    B150(43)  c153      1
    B150(43)  c156      1
    B150(43)  c162      1
    B150(43)  c164      3
    B150(43)  c170      -3
    B150(43)  c178      -1
    B150(43)  c179      -1
    B150(43)  c220      -1
    B150(43)  c222      -1
    B150(43)  c362      -2
    B150(43)  c364      -1
    B150(43)  c411      -1
    B150(43)  c416      -1
    B150(43)  c421      -1
    B150(43)  c426      -1
    B150(43)  c431      -1
    B150(43)  c436      -1
    B150(43)  c441      -1
    B150(43)  c446      -1
    B150(43)  c451      -1
    B150(43)  c456      -1
    B150(43)  c461      -1
    B150(43)  c466      -1
    B150(43)  c471      -1
    B150(43)  c476      -1
    B150(43)  c481      -1
    B150(43)  c486      -1
    B150(43)  c491      -1
    B150(43)  c496      -1
    B150(43)  c501      -1
    B150(43)  c506      -1
    B150(43)  c511      -1
    B150(43)  c516      -1
    B150(43)  c521      -1
    B150(43)  c526      -1
    B150(43)  c1239     1
    B150(43)  c1240     1
    B150(43)  c1255     1
    B150(43)  c1256     1
    B150(43)  c1271     1
    B150(43)  c1272     1
    B150(43)  c1287     1
    B150(43)  c1288     1
    B150(43)  t_definition_root_ZN_ac_3  1
    B150(43)  t_definition_root_ZN_nn_3  1
    B150(43)  t_definition_root_ZN_pp_3  1
    B150(43)  t_definition_root_ZN_ac_6  1
    B150(43)  t_definition_root_ZN_nn_6  1
    B150(43)  t_definition_root_ZN_pp_6  1
    B150(43)  t_definition_root_ZN_ac_9  1
    B150(43)  t_definition_root_ZN_nn_9  1
    B150(43)  t_definition_root_ZN_pp_9  1
    B150(43)  t_definition_non_root_ZN_pp_9  -1
    B151(43)  c154      1
    B151(43)  c157      1
    B151(43)  c163      1
    B151(43)  c165      3
    B151(43)  c171      -3
    B151(43)  c178      -1
    B151(43)  c179      -1
    B151(43)  c230      -1
    B151(43)  c232      -1
    B151(43)  c375      -2
    B151(43)  c377      -1
    B151(43)  c411      -1
    B151(43)  c416      -1
    B151(43)  c421      -1
    B151(43)  c426      -1
    B151(43)  c431      -1
    B151(43)  c436      -1
    B151(43)  c441      -1
    B151(43)  c446      -1
    B151(43)  c451      -1
    B151(43)  c456      -1
    B151(43)  c461      -1
    B151(43)  c466      -1
    B151(43)  c471      -1
    B151(43)  c476      -1
    B151(43)  c481      -1
    B151(43)  c486      -1
    B151(43)  c491      -1
    B151(43)  c496      -1
    B151(43)  c501      -1
    B151(43)  c506      -1
    B151(43)  c511      -1
    B151(43)  c516      -1
    B151(43)  c521      -1
    B151(43)  c526      -1
    B151(43)  c1239     1
    B151(43)  c1240     1
    B151(43)  c1255     1
    B151(43)  c1256     1
    B151(43)  c1271     1
    B151(43)  c1272     1
    B151(43)  c1287     1
    B151(43)  c1288     1
    B151(43)  t_definition_root_ZN_ac_3  1
    B151(43)  t_definition_root_ZN_nn_3  1
    B151(43)  t_definition_root_ZN_pp_3  1
    B151(43)  t_definition_root_ZN_ac_6  1
    B151(43)  t_definition_root_ZN_nn_6  1
    B151(43)  t_definition_root_ZN_pp_6  1
    B151(43)  t_definition_root_ZN_ac_9  1
    B151(43)  t_definition_root_ZN_nn_9  1
    B151(43)  t_definition_non_root_ZN_nn_9  -1
    B151(43)  t_definition_root_ZN_pp_9  1
    B152(49)  c155      1
    B152(49)  c158      1
    B152(49)  c159      1
    B152(49)  c160      1
    B152(49)  c161      1
    B152(49)  c162      1
    B152(49)  c163      1
    B152(49)  c166      3
    B152(49)  c172      -3
    B152(49)  c178      -1
    B152(49)  c179      -1
    B152(49)  c225      -1
    B152(49)  c227      -1
    B152(49)  c235      -1
    B152(49)  c237      -1
    B152(49)  c388      -4
    B152(49)  c390      -1
    B152(49)  c411      -1
    B152(49)  c416      -1
    B152(49)  c421      -1
    B152(49)  c426      -1
    B152(49)  c431      -1
    B152(49)  c436      -1
    B152(49)  c441      -1
    B152(49)  c446      -1
    B152(49)  c451      -1
    B152(49)  c456      -1
    B152(49)  c461      -1
    B152(49)  c466      -1
    B152(49)  c471      -1
    B152(49)  c476      -1
    B152(49)  c481      -1
    B152(49)  c486      -1
    B152(49)  c491      -1
    B152(49)  c496      -1
    B152(49)  c501      -1
    B152(49)  c506      -1
    B152(49)  c511      -1
    B152(49)  c516      -1
    B152(49)  c521      -1
    B152(49)  c526      -1
    B152(49)  c1239     1
    B152(49)  c1240     1
    B152(49)  c1255     1
    B152(49)  c1256     1
    B152(49)  c1271     1
    B152(49)  c1272     1
    B152(49)  c1287     1
    B152(49)  c1288     1
    B152(49)  t_definition_root_ZN_ac_3  1
    B152(49)  t_definition_root_ZN_nn_3  1
    B152(49)  t_definition_root_ZN_pp_3  1
    B152(49)  t_definition_root_ZN_ac_6  1
    B152(49)  t_definition_root_ZN_nn_6  1
    B152(49)  t_definition_root_ZN_pp_6  1
    B152(49)  t_definition_root_ZN_ac_9  1
    B152(49)  t_definition_non_root_ZN_ac_9  -1
    B152(49)  t_definition_root_ZN_nn_9  1
    B152(49)  t_definition_root_ZN_pp_9  1
    B153(3)   c153      -1
    B153(3)   c167      2
    B153(3)   c176      1
    B154(3)   c154      -1
    B154(3)   c168      2
    B154(3)   c176      1
    B155(3)   c155      -1
    B155(3)   c169      2
    B155(3)   c176      1
    B156(2)   c156      -1
    B156(2)   c177      1
    B157(2)   c157      -1
    B157(2)   c177      1
    B158(2)   c158      -1
    B158(2)   c177      1
    B159(44)  c178      3
    B159(44)  c179      1
    B159(44)  c181      -1
    B159(44)  c182      -1
    B159(44)  c186      -1
    B159(44)  c187      -1
    B159(44)  c191      -1
    B159(44)  c192      -1
    B159(44)  c196      -1
    B159(44)  c197      -1
    B159(44)  c201      -1
    B159(44)  c202      -1
    B159(44)  c206      -1
    B159(44)  c207      -1
    B159(44)  c211      -1
    B159(44)  c212      -1
    B159(44)  c216      -1
    B159(44)  c217      -1
    B159(44)  c221      -1
    B159(44)  c222      -1
    B159(44)  c226      -1
    B159(44)  c227      -1
    B159(44)  c231      -1
    B159(44)  c232      -1
    B159(44)  c236      -1
    B159(44)  c237      -1
    B159(44)  c241      -2
    B159(44)  c242      -1
    B159(44)  c254      -2
    B159(44)  c255      -1
    B159(44)  c267      -4
    B159(44)  c268      -1
    B159(44)  c290      -2
    B159(44)  c291      -1
    B159(44)  c309      -2
    B159(44)  c310      -1
    B159(44)  c328      -4
    B159(44)  c329      -1
    B159(44)  c363      -2
    B159(44)  c364      -1
    B159(44)  c376      -2
    B159(44)  c377      -1
    B159(44)  c389      -4
    B159(44)  c390      -1
    B160(5)   c180      1
    B160(5)   c181      1
    B160(5)   c182      1
    B160(5)   c183      -1
    B160(5)   c184      1
    I161(4)   c183      1
    I161(4)   c184      1
    I161(4)   c599      1
    I161(4)   c601      -1
    B162(5)   c185      1
    B162(5)   c186      1
    B162(5)   c187      1
    B162(5)   c188      -1
    B162(5)   c189      1
    I163(4)   c188      1
    I163(4)   c189      1
    I163(4)   c595      1
    I163(4)   c601      -1
    B164(5)   c190      1
    B164(5)   c191      1
    B164(5)   c192      1
    B164(5)   c193      -1
    B164(5)   c194      1
    I165(4)   c193      1
    I165(4)   c194      1
    I165(4)   c596      1
    I165(4)   c598      -1
    B166(5)   c195      1
    B166(5)   c196      1
    B166(5)   c197      1
    B166(5)   c198      -1
    B166(5)   c199      1
    I167(4)   c198      1
    I167(4)   c199      1
    I167(4)   c595      1
    I167(4)   c598      -1
    B168(5)   c200      1
    B168(5)   c201      1
    B168(5)   c202      1
    B168(5)   c203      -1
    B168(5)   c204      1
    I169(4)   c203      1
    I169(4)   c204      1
    I169(4)   c612      1
    I169(4)   c614      -1
    B170(5)   c205      1
    B170(5)   c206      1
    B170(5)   c207      1
    B170(5)   c208      -1
    B170(5)   c209      1
    I171(4)   c208      1
    I171(4)   c209      1
    I171(4)   c608      1
    I171(4)   c614      -1
    B172(5)   c210      1
    B172(5)   c211      1
    B172(5)   c212      1
    B172(5)   c213      -1
    B172(5)   c214      1
    I173(4)   c213      1
    I173(4)   c214      1
    I173(4)   c609      1
    I173(4)   c611      -1
    B174(5)   c215      1
    B174(5)   c216      1
    B174(5)   c217      1
    B174(5)   c218      -1
    B174(5)   c219      1
    I175(4)   c218      1
    I175(4)   c219      1
    I175(4)   c608      1
    I175(4)   c611      -1
    B176(5)   c220      1
    B176(5)   c221      1
    B176(5)   c222      1
    B176(5)   c223      -1
    B176(5)   c224      1
    I177(4)   c223      1
    I177(4)   c224      1
    I177(4)   c625      1
    I177(4)   c627      -1
    B178(5)   c225      1
    B178(5)   c226      1
    B178(5)   c227      1
    B178(5)   c228      -1
    B178(5)   c229      1
    I179(4)   c228      1
    I179(4)   c229      1
    I179(4)   c621      1
    I179(4)   c627      -1
    B180(5)   c230      1
    B180(5)   c231      1
    B180(5)   c232      1
    B180(5)   c233      -1
    B180(5)   c234      1
    I181(4)   c233      1
    I181(4)   c234      1
    I181(4)   c622      1
    I181(4)   c624      -1
    B182(5)   c235      1
    B182(5)   c236      1
    B182(5)   c237      1
    B182(5)   c238      -1
    B182(5)   c239      1
    I183(4)   c238      1
    I183(4)   c239      1
    I183(4)   c621      1
    I183(4)   c624      -1
    B184(5)   c240      1
    B184(5)   c241      1
    B184(5)   c242      1
    B184(5)   c243      -1
    B184(5)   c244      -1
    B185(5)   c240      1
    B185(5)   c241      1
    B185(5)   c242      1
    B185(5)   c248      -1
    B185(5)   c249      -1
    B186(5)   c243      1
    B186(5)   c244      1
    B186(5)   c245      1
    B186(5)   c246      1
    B186(5)   c247      1
    B187(5)   c248      1
    B187(5)   c249      1
    B187(5)   c250      1
    B187(5)   c251      1
    B187(5)   c252      1
    B188(5)   c253      1
    B188(5)   c254      1
    B188(5)   c255      1
    B188(5)   c256      -1
    B188(5)   c257      -1
    B189(5)   c253      1
    B189(5)   c254      1
    B189(5)   c255      1
    B189(5)   c261      -1
    B189(5)   c262      -1
    B190(5)   c256      1
    B190(5)   c257      1
    B190(5)   c258      1
    B190(5)   c259      1
    B190(5)   c260      1
    B191(5)   c261      1
    B191(5)   c262      1
    B191(5)   c263      1
    B191(5)   c264      1
    B191(5)   c265      1
    B192(5)   c266      1
    B192(5)   c267      1
    B192(5)   c268      1
    B192(5)   c269      -1
    B192(5)   c270      -1
    B193(5)   c266      1
    B193(5)   c267      1
    B193(5)   c268      1
    B193(5)   c274      -1
    B193(5)   c275      -1
    B194(5)   c266      1
    B194(5)   c267      1
    B194(5)   c268      1
    B194(5)   c279      -1
    B194(5)   c280      -1
    B195(5)   c266      1
    B195(5)   c267      1
    B195(5)   c268      1
    B195(5)   c284      -1
    B195(5)   c285      -1
    B196(5)   c269      1
    B196(5)   c270      1
    B196(5)   c271      1
    B196(5)   c272      1
    B196(5)   c273      1
    B197(5)   c274      1
    B197(5)   c275      1
    B197(5)   c276      1
    B197(5)   c277      1
    B197(5)   c278      1
    B198(5)   c279      1
    B198(5)   c280      1
    B198(5)   c281      1
    B198(5)   c282      1
    B198(5)   c283      1
    B199(5)   c284      1
    B199(5)   c285      1
    B199(5)   c286      1
    B199(5)   c287      1
    B199(5)   c288      1
    B200(5)   c289      1
    B200(5)   c290      1
    B200(5)   c291      1
    B200(5)   c292      -1
    B200(5)   c293      -1
    B201(5)   c289      1
    B201(5)   c290      1
    B201(5)   c291      1
    B201(5)   c300      -1
    B201(5)   c301      -1
    B202(5)   c292      1
    B202(5)   c293      1
    B202(5)   c294      1
    B202(5)   c295      1
    B202(5)   c296      1
    B203(5)   c292      1
    B203(5)   c293      1
    B203(5)   c297      1
    B203(5)   c298      1
    B203(5)   c299      1
    B204(5)   c300      1
    B204(5)   c301      1
    B204(5)   c302      1
    B204(5)   c303      1
    B204(5)   c304      1
    B205(5)   c300      1
    B205(5)   c301      1
    B205(5)   c305      1
    B205(5)   c306      1
    B205(5)   c307      1
    B206(5)   c308      1
    B206(5)   c309      1
    B206(5)   c310      1
    B206(5)   c311      -1
    B206(5)   c312      -1
    B207(5)   c308      1
    B207(5)   c309      1
    B207(5)   c310      1
    B207(5)   c319      -1
    B207(5)   c320      -1
    B208(5)   c311      1
    B208(5)   c312      1
    B208(5)   c313      1
    B208(5)   c314      1
    B208(5)   c315      1
    B209(5)   c311      1
    B209(5)   c312      1
    B209(5)   c316      1
    B209(5)   c317      1
    B209(5)   c318      1
    B210(5)   c319      1
    B210(5)   c320      1
    B210(5)   c321      1
    B210(5)   c322      1
    B210(5)   c323      1
    B211(5)   c319      1
    B211(5)   c320      1
    B211(5)   c324      1
    B211(5)   c325      1
    B211(5)   c326      1
    B212(7)   c327      1
    B212(7)   c328      1
    B212(7)   c329      1
    B212(7)   c330      -1
    B212(7)   c331      -1
    B212(7)   c1302     -1
    B212(7)   c1304     -1
    B213(5)   c327      1
    B213(5)   c328      1
    B213(5)   c329      1
    B213(5)   c338      -1
    B213(5)   c339      -1
    B214(5)   c327      1
    B214(5)   c328      1
    B214(5)   c329      1
    B214(5)   c346      -1
    B214(5)   c347      -1
    B215(7)   c327      1
    B215(7)   c328      1
    B215(7)   c329      1
    B215(7)   c354      -1
    B215(7)   c355      -1
    B215(7)   c1305     -1
    B215(7)   c1307     -1
    B216(5)   c330      1
    B216(5)   c331      1
    B216(5)   c332      1
    B216(5)   c333      1
    B216(5)   c334      1
    B217(5)   c330      1
    B217(5)   c331      1
    B217(5)   c335      1
    B217(5)   c336      1
    B217(5)   c337      1
    B218(5)   c338      1
    B218(5)   c339      1
    B218(5)   c340      1
    B218(5)   c341      1
    B218(5)   c342      1
    B219(5)   c338      1
    B219(5)   c339      1
    B219(5)   c343      1
    B219(5)   c344      1
    B219(5)   c345      1
    B220(5)   c346      1
    B220(5)   c347      1
    B220(5)   c348      1
    B220(5)   c349      1
    B220(5)   c350      1
    B221(5)   c346      1
    B221(5)   c347      1
    B221(5)   c351      1
    B221(5)   c352      1
    B221(5)   c353      1
    B222(5)   c354      1
    B222(5)   c355      1
    B222(5)   c356      1
    B222(5)   c357      1
    B222(5)   c358      1
    B223(5)   c354      1
    B223(5)   c355      1
    B223(5)   c359      1
    B223(5)   c360      1
    B223(5)   c361      1
    B224(5)   c362      1
    B224(5)   c363      1
    B224(5)   c364      1
    B224(5)   c365      -1
    B224(5)   c366      -1
    B225(5)   c362      1
    B225(5)   c363      1
    B225(5)   c364      1
    B225(5)   c370      -1
    B225(5)   c371      -1
    B226(5)   c365      1
    B226(5)   c366      1
    B226(5)   c367      1
    B226(5)   c368      1
    B226(5)   c369      1
    B227(5)   c370      1
    B227(5)   c371      1
    B227(5)   c372      1
    B227(5)   c373      1
    B227(5)   c374      1
    B228(5)   c375      1
    B228(5)   c376      1
    B228(5)   c377      1
    B228(5)   c378      -1
    B228(5)   c379      -1
    B229(5)   c375      1
    B229(5)   c376      1
    B229(5)   c377      1
    B229(5)   c383      -1
    B229(5)   c384      -1
    B230(5)   c378      1
    B230(5)   c379      1
    B230(5)   c380      1
    B230(5)   c381      1
    B230(5)   c382      1
    B231(5)   c383      1
    B231(5)   c384      1
    B231(5)   c385      1
    B231(5)   c386      1
    B231(5)   c387      1
    B232(7)   c388      1
    B232(7)   c389      1
    B232(7)   c390      1
    B232(7)   c391      -1
    B232(7)   c392      -1
    B232(7)   c1300     -1
    B232(7)   c1301     -1
    B233(5)   c388      1
    B233(5)   c389      1
    B233(5)   c390      1
    B233(5)   c396      -1
    B233(5)   c397      -1
    B234(5)   c388      1
    B234(5)   c389      1
    B234(5)   c390      1
    B234(5)   c401      -1
    B234(5)   c402      -1
    B235(7)   c388      1
    B235(7)   c389      1
    B235(7)   c390      1
    B235(7)   c406      -1
    B235(7)   c407      -1
    B235(7)   c1297     -1
    B235(7)   c1298     -1
    B236(5)   c391      1
    B236(5)   c392      1
    B236(5)   c393      1
    B236(5)   c394      1
    B236(5)   c395      1
    B237(5)   c396      1
    B237(5)   c397      1
    B237(5)   c398      1
    B237(5)   c399      1
    B237(5)   c400      1
    B238(5)   c401      1
    B238(5)   c402      1
    B238(5)   c403      1
    B238(5)   c404      1
    B238(5)   c405      1
    B239(5)   c406      1
    B239(5)   c407      1
    B239(5)   c408      1
    B239(5)   c409      1
    B239(5)   c410      1
    B240(10)  c411      1
    B240(10)  c412      3
    B240(10)  c413      3
    B240(10)  c414      -1
    B240(10)  c415      1
    B240(10)  c535      -1
    B240(10)  c536      -1
    B240(10)  c537      1
    B240(10)  c1151     1
    B240(10)  c1153     1
    I241(4)   c414      1
    I241(4)   c415      1
    I241(4)   c601      -1
    I241(4)   c607      1
    B242(10)  c416      1
    B242(10)  c417      3
    B242(10)  c418      3
    B242(10)  c419      -1
    B242(10)  c420      1
    B242(10)  c538      -1
    B242(10)  c539      -1
    B242(10)  c540      1
    B242(10)  c1152     1
    B242(10)  c1153     1
    I243(4)   c419      1
    I243(4)   c420      1
    I243(4)   c601      -1
    I243(4)   c607      1
    B244(10)  c421      1
    B244(10)  c422      3
    B244(10)  c423      3
    B244(10)  c424      -1
    B244(10)  c425      1
    B244(10)  c541      -1
    B244(10)  c542      -1
    B244(10)  c543      1
    B244(10)  c1155     1
    B244(10)  c1157     1
    I245(4)   c424      1
    I245(4)   c425      1
    I245(4)   c598      -1
    I245(4)   c605      1
    B246(10)  c426      1
    B246(10)  c427      3
    B246(10)  c428      3
    B246(10)  c429      -1
    B246(10)  c430      1
    B246(10)  c544      -1
    B246(10)  c545      -1
    B246(10)  c546      1
    B246(10)  c1156     1
    B246(10)  c1157     1
    I247(4)   c429      1
    I247(4)   c430      1
    I247(4)   c598      -1
    I247(4)   c605      1
    B248(10)  c431      1
    B248(10)  c432      3
    B248(10)  c433      3
    B248(10)  c434      -1
    B248(10)  c435      1
    B248(10)  c547      -1
    B248(10)  c548      -1
    B248(10)  c549      1
    B248(10)  c1159     1
    B248(10)  c1161     1
    I249(4)   c434      1
    I249(4)   c435      1
    I249(4)   c607      -1
    I249(4)   c614      1
    B250(10)  c436      1
    B250(10)  c437      3
    B250(10)  c438      3
    B250(10)  c439      -1
    B250(10)  c440      1
    B250(10)  c550      -1
    B250(10)  c551      -1
    B250(10)  c552      1
    B250(10)  c1160     1
    B250(10)  c1161     1
    I251(4)   c439      1
    I251(4)   c440      1
    I251(4)   c607      -1
    I251(4)   c614      1
    B252(10)  c441      1
    B252(10)  c442      3
    B252(10)  c443      3
    B252(10)  c444      -1
    B252(10)  c445      1
    B252(10)  c553      -1
    B252(10)  c554      -1
    B252(10)  c555      1
    B252(10)  c1163     1
    B252(10)  c1165     1
    I253(4)   c444      1
    I253(4)   c445      1
    I253(4)   c605      -1
    I253(4)   c611      1
    B254(10)  c446      1
    B254(10)  c447      3
    B254(10)  c448      3
    B254(10)  c449      -1
    B254(10)  c450      1
    B254(10)  c556      -1
    B254(10)  c557      -1
    B254(10)  c558      1
    B254(10)  c1164     1
    B254(10)  c1165     1
    I255(4)   c449      1
    I255(4)   c450      1
    I255(4)   c605      -1
    I255(4)   c611      1
    B256(10)  c451      1
    B256(10)  c452      3
    B256(10)  c453      3
    B256(10)  c454      -1
    B256(10)  c455      1
    B256(10)  c559      -1
    B256(10)  c560      -1
    B256(10)  c561      1
    B256(10)  c1167     1
    B256(10)  c1169     1
    I257(4)   c454      1
    I257(4)   c455      1
    I257(4)   c614      -1
    I257(4)   c620      1
    B258(10)  c456      1
    B258(10)  c457      3
    B258(10)  c458      3
    B258(10)  c459      -1
    B258(10)  c460      1
    B258(10)  c562      -1
    B258(10)  c563      -1
    B258(10)  c564      1
    B258(10)  c1168     1
    B258(10)  c1169     1
    I259(4)   c459      1
    I259(4)   c460      1
    I259(4)   c614      -1
    I259(4)   c620      1
    B260(10)  c461      1
    B260(10)  c462      3
    B260(10)  c463      3
    B260(10)  c464      -1
    B260(10)  c465      1
    B260(10)  c565      -1
    B260(10)  c566      -1
    B260(10)  c567      1
    B260(10)  c1171     1
    B260(10)  c1173     1
    I261(4)   c464      1
    I261(4)   c465      1
    I261(4)   c611      -1
    I261(4)   c618      1
    B262(10)  c466      1
    B262(10)  c467      3
    B262(10)  c468      3
    B262(10)  c469      -1
    B262(10)  c470      1
    B262(10)  c568      -1
    B262(10)  c569      -1
    B262(10)  c570      1
    B262(10)  c1172     1
    B262(10)  c1173     1
    I263(4)   c469      1
    I263(4)   c470      1
    I263(4)   c611      -1
    I263(4)   c618      1
    B264(10)  c471      1
    B264(10)  c472      3
    B264(10)  c473      3
    B264(10)  c474      -1
    B264(10)  c475      1
    B264(10)  c571      -1
    B264(10)  c572      -1
    B264(10)  c573      1
    B264(10)  c1175     1
    B264(10)  c1177     1
    I265(4)   c474      1
    I265(4)   c475      1
    I265(4)   c620      -1
    I265(4)   c627      1
    B266(10)  c476      1
    B266(10)  c477      3
    B266(10)  c478      3
    B266(10)  c479      -1
    B266(10)  c480      1
    B266(10)  c574      -1
    B266(10)  c575      -1
    B266(10)  c576      1
    B266(10)  c1176     1
    B266(10)  c1177     1
    I267(4)   c479      1
    I267(4)   c480      1
    I267(4)   c620      -1
    I267(4)   c627      1
    B268(10)  c481      1
    B268(10)  c482      3
    B268(10)  c483      3
    B268(10)  c484      -1
    B268(10)  c485      1
    B268(10)  c577      -1
    B268(10)  c578      -1
    B268(10)  c579      1
    B268(10)  c1179     1
    B268(10)  c1181     1
    I269(4)   c484      1
    I269(4)   c485      1
    I269(4)   c618      -1
    I269(4)   c624      1
    B270(10)  c486      1
    B270(10)  c487      3
    B270(10)  c488      3
    B270(10)  c489      -1
    B270(10)  c490      1
    B270(10)  c580      -1
    B270(10)  c581      -1
    B270(10)  c582      1
    B270(10)  c1180     1
    B270(10)  c1181     1
    I271(4)   c489      1
    I271(4)   c490      1
    I271(4)   c618      -1
    I271(4)   c624      1
    B272(6)   c491      1
    B272(6)   c492      3
    B272(6)   c493      3
    B272(6)   c494      -1
    B272(6)   c495      1
    B272(6)   c531      1
    I273(4)   c494      1
    I273(4)   c495      1
    I273(4)   c603      -1
    I273(4)   c607      1
    B274(6)   c496      1
    B274(6)   c497      3
    B274(6)   c498      3
    B274(6)   c499      -1
    B274(6)   c500      1
    B274(6)   c532      1
    I275(4)   c499      1
    I275(4)   c500      1
    I275(4)   c603      -1
    I275(4)   c605      1
    B276(8)   c501      1
    B276(8)   c502      3
    B276(8)   c503      3
    B276(8)   c504      -1
    B276(8)   c505      1
    B276(8)   c583      -1
    B276(8)   c584      -1
    B276(8)   c585      -1
    I277(4)   c504      1
    I277(4)   c505      1
    I277(4)   c603      -1
    I277(4)   c616      1
    B278(8)   c506      1
    B278(8)   c507      3
    B278(8)   c508      3
    B278(8)   c509      -1
    B278(8)   c510      1
    B278(8)   c586      -1
    B278(8)   c587      -1
    B278(8)   c588      -1
    I279(4)   c509      1
    I279(4)   c510      1
    I279(4)   c603      -1
    I279(4)   c616      1
    B280(8)   c511      1
    B280(8)   c512      3
    B280(8)   c513      3
    B280(8)   c514      -1
    B280(8)   c515      1
    B280(8)   c589      -1
    B280(8)   c590      -1
    B280(8)   c591      -1
    I281(4)   c514      1
    I281(4)   c515      1
    I281(4)   c603      -1
    I281(4)   c616      1
    B282(8)   c516      1
    B282(8)   c517      3
    B282(8)   c518      3
    B282(8)   c519      -1
    B282(8)   c520      1
    B282(8)   c592      -1
    B282(8)   c593      -1
    B282(8)   c594      -1
    I283(4)   c519      1
    I283(4)   c520      1
    I283(4)   c603      -1
    I283(4)   c616      1
    B284(6)   c521      1
    B284(6)   c522      3
    B284(6)   c523      3
    B284(6)   c524      -1
    B284(6)   c525      1
    B284(6)   c533      1
    I285(4)   c524      1
    I285(4)   c525      1
    I285(4)   c616      -1
    I285(4)   c620      1
    B286(6)   c526      1
    B286(6)   c527      3
    B286(6)   c528      3
    B286(6)   c529      -1
    B286(6)   c530      1
    B286(6)   c534      1
    I287(4)   c529      1
    I287(4)   c530      1
    I287(4)   c616      -1
    I287(4)   c618      1
    I288(1)   c595      -1
    I288(1)   t_definition_root_ZN_ac_3  1
    I288(1)   t_definition_non_root_ZN_ac_3  1
    I289(1)   c596      -1
    I289(1)   t_definition_root_ZN_nn_3  1
    I289(1)   t_definition_non_root_ZN_nn_3  1
    I290(2)   c597      1
    I290(2)   c598      -1
    I291(1)   c599      -1
    I291(1)   t_definition_root_ZN_pp_3  1
    I291(1)   t_definition_non_root_ZN_pp_3  1
    I292(2)   c600      1
    I292(2)   c601      -1
    I293(2)   c602      1
    I293(2)   c603      -1
    I294(2)   c604      1
    I294(2)   c605      -1
    I295(2)   c606      1
    I295(2)   c607      -1
    I296(1)   c608      -1
    I296(1)   t_definition_root_ZN_ac_6  1
    I296(1)   t_definition_non_root_ZN_ac_6  1
    I297(1)   c609      -1
    I297(1)   t_definition_root_ZN_nn_6  1
    I297(1)   t_definition_non_root_ZN_nn_6  1
    I298(2)   c610      1
    I298(2)   c611      -1
    I299(1)   c612      -1
    I299(1)   t_definition_root_ZN_pp_6  1
    I299(1)   t_definition_non_root_ZN_pp_6  1
    I300(2)   c613      1
    I300(2)   c614      -1
    I301(2)   c615      1
    I301(2)   c616      -1
    I302(2)   c617      1
    I302(2)   c618      -1
    I303(2)   c619      1
    I303(2)   c620      -1
    I304(1)   c621      -1
    I304(1)   t_definition_root_ZN_ac_9  1
    I304(1)   t_definition_non_root_ZN_ac_9  1
    I305(1)   c622      -1
    I305(1)   t_definition_root_ZN_nn_9  1
    I305(1)   t_definition_non_root_ZN_nn_9  1
    I306(2)   c623      1
    I306(2)   c624      -1
    I307(1)   c625      -1
    I307(1)   t_definition_root_ZN_pp_9  1
    I307(1)   t_definition_non_root_ZN_pp_9  1
    I308(2)   c626      1
    I308(2)   c627      -1
    B309(18)  c766      -1
    B309(18)  c792      -1
    B309(18)  c815      -1
    B309(18)  c818      -1
    B309(18)  c853      -1
    B309(18)  c856      -1
    B309(18)  c888      -1
    B309(18)  c914      -1
    B309(18)  c1056     1
    B309(18)  c1068     1
    B309(18)  c1082     -1
    B309(18)  c1094     -1
    B309(18)  c1183     -1
    B309(18)  c1234     -1
    B309(18)  c1235     -1
    B309(18)  c1236     -3.3333333333333331e-01
    B309(18)  c1245     1
    B309(18)  c1246     1
    B310(18)  c771      -1
    B310(18)  c797      -1
    B310(18)  c823      -1
    B310(18)  c826      -1
    B310(18)  c861      -1
    B310(18)  c864      -1
    B310(18)  c893      -1
    B310(18)  c919      -1
    B310(18)  c1059     1
    B310(18)  c1071     1
    B310(18)  c1085     -1
    B310(18)  c1097     -1
    B310(18)  c1185     -1
    B310(18)  c1250     -1
    B310(18)  c1251     -1
    B310(18)  c1252     -3.3333333333333331e-01
    B310(18)  c1261     1
    B310(18)  c1262     1
    B311(18)  c779      -1
    B311(18)  c802      -1
    B311(18)  c834      -1
    B311(18)  c837      -1
    B311(18)  c869      -1
    B311(18)  c872      -1
    B311(18)  c901      -1
    B311(18)  c924      -1
    B311(18)  c1062     1
    B311(18)  c1074     1
    B311(18)  c1088     -1
    B311(18)  c1100     -1
    B311(18)  c1187     -1
    B311(18)  c1266     -1
    B311(18)  c1267     -1
    B311(18)  c1268     -3.3333333333333331e-01
    B311(18)  c1277     1
    B311(18)  c1278     1
    B312(18)  c784      -1
    B312(18)  c807      -1
    B312(18)  c842      -1
    B312(18)  c845      -1
    B312(18)  c877      -1
    B312(18)  c880      -1
    B312(18)  c906      -1
    B312(18)  c929      -1
    B312(18)  c1065     1
    B312(18)  c1077     1
    B312(18)  c1091     -1
    B312(18)  c1103     -1
    B312(18)  c1189     -1
    B312(18)  c1282     -1
    B312(18)  c1283     -1
    B312(18)  c1284     -3.3333333333333331e-01
    B312(18)  c1293     1
    B312(18)  c1294     1
    B313(18)  c767      -1
    B313(18)  c793      -1
    B313(18)  c816      -1
    B313(18)  c819      -1
    B313(18)  c854      -1
    B313(18)  c857      -1
    B313(18)  c889      -1
    B313(18)  c915      -1
    B313(18)  c1057     1
    B313(18)  c1069     1
    B313(18)  c1080     1
    B313(18)  c1092     1
    B313(18)  c1199     -1
    B313(18)  c1234     -1
    B313(18)  c1235     -1
    B313(18)  c1236     -3.3333333333333331e-01
    B313(18)  c1245     1
    B313(18)  c1246     1
    B314(18)  c772      -1
    B314(18)  c798      -1
    B314(18)  c824      -1
    B314(18)  c827      -1
    B314(18)  c862      -1
    B314(18)  c865      -1
    B314(18)  c894      -1
    B314(18)  c920      -1
    B314(18)  c1060     1
    B314(18)  c1072     1
    B314(18)  c1083     1
    B314(18)  c1095     1
    B314(18)  c1201     -1
    B314(18)  c1250     -1
    B314(18)  c1251     -1
    B314(18)  c1252     -3.3333333333333331e-01
    B314(18)  c1261     1
    B314(18)  c1262     1
    B315(18)  c780      -1
    B315(18)  c803      -1
    B315(18)  c835      -1
    B315(18)  c838      -1
    B315(18)  c870      -1
    B315(18)  c873      -1
    B315(18)  c902      -1
    B315(18)  c925      -1
    B315(18)  c1063     1
    B315(18)  c1075     1
    B315(18)  c1086     1
    B315(18)  c1098     1
    B315(18)  c1203     -1
    B315(18)  c1266     -1
    B315(18)  c1267     -1
    B315(18)  c1268     -3.3333333333333331e-01
    B315(18)  c1277     1
    B315(18)  c1278     1
    B316(18)  c785      -1
    B316(18)  c808      -1
    B316(18)  c843      -1
    B316(18)  c846      -1
    B316(18)  c878      -1
    B316(18)  c881      -1
    B316(18)  c907      -1
    B316(18)  c930      -1
    B316(18)  c1066     1
    B316(18)  c1078     1
    B316(18)  c1089     1
    B316(18)  c1101     1
    B316(18)  c1205     -1
    B316(18)  c1282     -1
    B316(18)  c1283     -1
    B316(18)  c1284     -3.3333333333333331e-01
    B316(18)  c1293     1
    B316(18)  c1294     1
    B317(18)  c768      -1
    B317(18)  c794      -1
    B317(18)  c817      -1
    B317(18)  c820      -1
    B317(18)  c855      -1
    B317(18)  c858      -1
    B317(18)  c890      -1
    B317(18)  c916      -1
    B317(18)  c1058     -1
    B317(18)  c1070     -1
    B317(18)  c1081     1
    B317(18)  c1093     1
    B317(18)  c1215     -1
    B317(18)  c1234     -1
    B317(18)  c1235     -1
    B317(18)  c1236     -3.3333333333333331e-01
    B317(18)  c1245     1
    B317(18)  c1246     1
    B318(18)  c773      -1
    B318(18)  c799      -1
    B318(18)  c825      -1
    B318(18)  c828      -1
    B318(18)  c863      -1
    B318(18)  c866      -1
    B318(18)  c895      -1
    B318(18)  c921      -1
    B318(18)  c1061     -1
    B318(18)  c1073     -1
    B318(18)  c1084     1
    B318(18)  c1096     1
    B318(18)  c1217     -1
    B318(18)  c1250     -1
    B318(18)  c1251     -1
    B318(18)  c1252     -3.3333333333333331e-01
    B318(18)  c1261     1
    B318(18)  c1262     1
    B319(18)  c781      -1
    B319(18)  c804      -1
    B319(18)  c836      -1
    B319(18)  c839      -1
    B319(18)  c871      -1
    B319(18)  c874      -1
    B319(18)  c903      -1
    B319(18)  c926      -1
    B319(18)  c1064     -1
    B319(18)  c1076     -1
    B319(18)  c1087     1
    B319(18)  c1099     1
    B319(18)  c1219     -1
    B319(18)  c1266     -1
    B319(18)  c1267     -1
    B319(18)  c1268     -3.3333333333333331e-01
    B319(18)  c1277     1
    B319(18)  c1278     1
    B320(18)  c786      -1
    B320(18)  c809      -1
    B320(18)  c844      -1
    B320(18)  c847      -1
    B320(18)  c879      -1
    B320(18)  c882      -1
    B320(18)  c908      -1
    B320(18)  c931      -1
    B320(18)  c1067     -1
    B320(18)  c1079     -1
    B320(18)  c1090     1
    B320(18)  c1102     1
    B320(18)  c1221     -1
    B320(18)  c1282     -1
    B320(18)  c1283     -1
    B320(18)  c1284     -3.3333333333333331e-01
    B320(18)  c1293     1
    B320(18)  c1294     1
    B321(3)   OBJ       60
    B321(3)   c1052     -1
    B321(3)   c1053     -1
    B321(3)   c1149     1
    B322(3)   OBJ       60
    B322(3)   c1054     -1
    B322(3)   c1055     -1
    B322(3)   c1150     1
    B323(2)   c1104     1
    B323(2)   c1191     -1
    B324(2)   c1107     1
    B324(2)   c1193     -1
    B325(2)   c1110     1
    B325(2)   c1195     -1
    B326(2)   c1113     1
    B326(2)   c1197     -1
    B327(2)   c1105     1
    B327(2)   c1207     -1
    B328(2)   c1108     1
    B328(2)   c1209     -1
    B329(2)   c1111     1
    B329(2)   c1211     -1
    B330(2)   c1114     1
    B330(2)   c1213     -1
    B331(2)   c1106     1
    B331(2)   c1223     -1
    B332(2)   c1109     1
    B332(2)   c1225     -1
    B333(2)   c1112     1
    B333(2)   c1227     -1
    B334(2)   c1115     1
    B334(2)   c1229     -1
    I335(42)  c639      1
    I335(42)  c640      1
    I335(42)  c641      1
    I335(42)  c642      -1
    I335(42)  c643      -1
    I335(42)  c644      -1
    I335(42)  c662      1
    I335(42)  c663      1
    I335(42)  c664      1
    I335(42)  c665      -1
    I335(42)  c666      -1
    I335(42)  c667      -1
    I335(42)  c685      1
    I335(42)  c686      1
    I335(42)  c687      1
    I335(42)  c688      -1
    I335(42)  c689      -1
    I335(42)  c690      -1
    I335(42)  c933      1
    I335(42)  c938      1
    I335(42)  c943      1
    I335(42)  c948      1
    I335(42)  c953      1
    I335(42)  c958      1
    I335(42)  c963      1
    I335(42)  c968      1
    I335(42)  c973      1
    I335(42)  c978      1
    I335(42)  c983      1
    I335(42)  c988      1
    I335(42)  c993      1
    I335(42)  c998      1
    I335(42)  c1003     1
    I335(42)  c1008     1
    I335(42)  c1013     1
    I335(42)  c1018     1
    I335(42)  c1023     1
    I335(42)  c1028     1
    I335(42)  c1033     1
    I335(42)  c1038     1
    I335(42)  c1043     1
    I335(42)  c1048     1
    I336(42)  c645      1
    I336(42)  c646      1
    I336(42)  c647      1
    I336(42)  c648      -1
    I336(42)  c649      -1
    I336(42)  c650      -1
    I336(42)  c668      1
    I336(42)  c669      1
    I336(42)  c670      1
    I336(42)  c671      -1
    I336(42)  c672      -1
    I336(42)  c673      -1
    I336(42)  c691      1
    I336(42)  c692      1
    I336(42)  c693      1
    I336(42)  c694      -1
    I336(42)  c695      -1
    I336(42)  c696      -1
    I336(42)  c934      -1
    I336(42)  c939      -1
    I336(42)  c944      -1
    I336(42)  c949      -1
    I336(42)  c954      -1
    I336(42)  c959      -1
    I336(42)  c964      -1
    I336(42)  c969      -1
    I336(42)  c974      -1
    I336(42)  c979      -1
    I336(42)  c984      -1
    I336(42)  c989      -1
    I336(42)  c994      -1
    I336(42)  c999      -1
    I336(42)  c1004     -1
    I336(42)  c1009     -1
    I336(42)  c1014     -1
    I336(42)  c1019     -1
    I336(42)  c1024     -1
    I336(42)  c1029     -1
    I336(42)  c1034     -1
    I336(42)  c1039     -1
    I336(42)  c1044     -1
    I336(42)  c1049     -1
    B337(43)  c628      1
    B337(43)  c631      1
    B337(43)  c637      1
    B337(43)  c639      3
    B337(43)  c645      -3
    B337(43)  c699      -1
    B337(43)  c700      -1
    B337(43)  c701      -1
    B337(43)  c703      -1
    B337(43)  c761      -2
    B337(43)  c763      -1
    B337(43)  c932      -1
    B337(43)  c937      -1
    B337(43)  c942      -1
    B337(43)  c947      -1
    B337(43)  c952      -1
    B337(43)  c957      -1
    B337(43)  c962      -1
    B337(43)  c967      -1
    B337(43)  c972      -1
    B337(43)  c977      -1
    B337(43)  c982      -1
    B337(43)  c987      -1
    B337(43)  c992      -1
    B337(43)  c997      -1
    B337(43)  c1002     -1
    B337(43)  c1007     -1
    B337(43)  c1012     -1
    B337(43)  c1017     -1
    B337(43)  c1022     -1
    B337(43)  c1027     -1
    B337(43)  c1032     -1
    B337(43)  c1037     -1
    B337(43)  c1042     -1
    B337(43)  c1047     -1
    B337(43)  c1231     1
    B337(43)  c1232     1
    B337(43)  c1247     1
    B337(43)  c1248     1
    B337(43)  c1263     1
    B337(43)  c1264     1
    B337(43)  c1279     1
    B337(43)  c1280     1
    B337(43)  t_definition_root_I_ac_3  1
    B337(43)  t_definition_root_I_nn_3  1
    B337(43)  t_definition_root_I_pp_3  1
    B337(43)  t_definition_non_root_I_pp_3  -1
    B337(43)  t_definition_root_I_ac_6  1
    B337(43)  t_definition_root_I_nn_6  1
    B337(43)  t_definition_root_I_pp_6  1
    B337(43)  t_definition_root_I_ac_9  1
    B337(43)  t_definition_root_I_nn_9  1
    B337(43)  t_definition_root_I_pp_9  1
    B338(43)  c629      1
    B338(43)  c632      1
    B338(43)  c638      1
    B338(43)  c640      3
    B338(43)  c646      -3
    B338(43)  c699      -1
    B338(43)  c700      -1
    B338(43)  c711      -1
    B338(43)  c713      -1
    B338(43)  c774      -2
    B338(43)  c776      -1
    B338(43)  c932      -1
    B338(43)  c937      -1
    B338(43)  c942      -1
    B338(43)  c947      -1
    B338(43)  c952      -1
    B338(43)  c957      -1
    B338(43)  c962      -1
    B338(43)  c967      -1
    B338(43)  c972      -1
    B338(43)  c977      -1
    B338(43)  c982      -1
    B338(43)  c987      -1
    B338(43)  c992      -1
    B338(43)  c997      -1
    B338(43)  c1002     -1
    B338(43)  c1007     -1
    B338(43)  c1012     -1
    B338(43)  c1017     -1
    B338(43)  c1022     -1
    B338(43)  c1027     -1
    B338(43)  c1032     -1
    B338(43)  c1037     -1
    B338(43)  c1042     -1
    B338(43)  c1047     -1
    B338(43)  c1231     1
    B338(43)  c1232     1
    B338(43)  c1247     1
    B338(43)  c1248     1
    B338(43)  c1263     1
    B338(43)  c1264     1
    B338(43)  c1279     1
    B338(43)  c1280     1
    B338(43)  t_definition_root_I_ac_3  1
    B338(43)  t_definition_root_I_nn_3  1
    B338(43)  t_definition_non_root_I_nn_3  -1
    B338(43)  t_definition_root_I_pp_3  1
    B338(43)  t_definition_root_I_ac_6  1
    B338(43)  t_definition_root_I_nn_6  1
    B338(43)  t_definition_root_I_pp_6  1
    B338(43)  t_definition_root_I_ac_9  1
    B338(43)  t_definition_root_I_nn_9  1
    B338(43)  t_definition_root_I_pp_9  1
    B339(49)  c630      1
    B339(49)  c633      1
    B339(49)  c634      1
    B339(49)  c635      1
    B339(49)  c636      1
    B339(49)  c637      1
    B339(49)  c638      1
    B339(49)  c641      3
    B339(49)  c647      -3
    B339(49)  c699      -1
    B339(49)  c700      -1
    B339(49)  c706      -1
    B339(49)  c708      -1
    B339(49)  c716      -1
    B339(49)  c718      -1
    B339(49)  c787      -4
    B339(49)  c789      -1
    B339(49)  c932      -1
    B339(49)  c937      -1
    B339(49)  c942      -1
    B339(49)  c947      -1
    B339(49)  c952      -1
    B339(49)  c957      -1
    B339(49)  c962      -1
    B339(49)  c967      -1
    B339(49)  c972      -1
    B339(49)  c977      -1
    B339(49)  c982      -1
    B339(49)  c987      -1
    B339(49)  c992      -1
    B339(49)  c997      -1
    B339(49)  c1002     -1
    B339(49)  c1007     -1
    B339(49)  c1012     -1
    B339(49)  c1017     -1
    B339(49)  c1022     -1
    B339(49)  c1027     -1
    B339(49)  c1032     -1
    B339(49)  c1037     -1
    B339(49)  c1042     -1
    B339(49)  c1047     -1
    B339(49)  c1231     1
    B339(49)  c1232     1
    B339(49)  c1247     1
    B339(49)  c1248     1
    B339(49)  c1263     1
    B339(49)  c1264     1
    B339(49)  c1279     1
    B339(49)  c1280     1
    B339(49)  t_definition_root_I_ac_3  1
    B339(49)  t_definition_non_root_I_ac_3  -1
    B339(49)  t_definition_root_I_nn_3  1
    B339(49)  t_definition_root_I_pp_3  1
    B339(49)  t_definition_root_I_ac_6  1
    B339(49)  t_definition_root_I_nn_6  1
    B339(49)  t_definition_root_I_pp_6  1
    B339(49)  t_definition_root_I_ac_9  1
    B339(49)  t_definition_root_I_nn_9  1
    B339(49)  t_definition_root_I_pp_9  1
    B340(2)   c628      -1
    B340(2)   c697      1
    B341(2)   c629      -1
    B341(2)   c697      1
    B342(2)   c630      -1
    B342(2)   c697      1
    B343(3)   c631      -1
    B343(3)   c648      -2
    B343(3)   c698      1
    B344(3)   c632      -1
    B344(3)   c649      -2
    B344(3)   c698      1
    B345(3)   c633      -1
    B345(3)   c650      -2
    B345(3)   c698      1
    B346(43)  c651      1
    B346(43)  c654      1
    B346(43)  c660      1
    B346(43)  c662      3
    B346(43)  c668      -3
    B346(43)  c699      -1
    B346(43)  c700      -1
    B346(43)  c721      -1
    B346(43)  c723      -1
    B346(43)  c810      -2
    B346(43)  c812      -1
    B346(43)  c932      -1
    B346(43)  c937      -1
    B346(43)  c942      -1
    B346(43)  c947      -1
    B346(43)  c952      -1
    B346(43)  c957      -1
    B346(43)  c962      -1
    B346(43)  c967      -1
    B346(43)  c972      -1
    B346(43)  c977      -1
    B346(43)  c982      -1
    B346(43)  c987      -1
    B346(43)  c992      -1
    B346(43)  c997      -1
    B346(43)  c1002     -1
    B346(43)  c1007     -1
    B346(43)  c1012     -1
    B346(43)  c1017     -1
    B346(43)  c1022     -1
    B346(43)  c1027     -1
    B346(43)  c1032     -1
    B346(43)  c1037     -1
    B346(43)  c1042     -1
    B346(43)  c1047     -1
    B346(43)  c1231     1
    B346(43)  c1232     1
    B346(43)  c1247     1
    B346(43)  c1248     1
    B346(43)  c1263     1
    B346(43)  c1264     1
    B346(43)  c1279     1
    B346(43)  c1280     1
    B346(43)  t_definition_root_I_ac_3  1
    B346(43)  t_definition_root_I_nn_3  1
    B346(43)  t_definition_root_I_pp_3  1
    B346(43)  t_definition_root_I_ac_6  1
    B346(43)  t_definition_root_I_nn_6  1
    B346(43)  t_definition_root_I_pp_6  1
    B346(43)  t_definition_non_root_I_pp_6  -1
    B346(43)  t_definition_root_I_ac_9  1
    B346(43)  t_definition_root_I_nn_9  1
    B346(43)  t_definition_root_I_pp_9  1
    B347(43)  c652      1
    B347(43)  c655      1
    B347(43)  c661      1
    B347(43)  c663      3
    B347(43)  c669      -3
    B347(43)  c699      -1
    B347(43)  c700      -1
    B347(43)  c731      -1
    B347(43)  c733      -1
    B347(43)  c829      -2
    B347(43)  c831      -1
    B347(43)  c932      -1
    B347(43)  c937      -1
    B347(43)  c942      -1
    B347(43)  c947      -1
    B347(43)  c952      -1
    B347(43)  c957      -1
    B347(43)  c962      -1
    B347(43)  c967      -1
    B347(43)  c972      -1
    B347(43)  c977      -1
    B347(43)  c982      -1
    B347(43)  c987      -1
    B347(43)  c992      -1
    B347(43)  c997      -1
    B347(43)  c1002     -1
    B347(43)  c1007     -1
    B347(43)  c1012     -1
    B347(43)  c1017     -1
    B347(43)  c1022     -1
    B347(43)  c1027     -1
    B347(43)  c1032     -1
    B347(43)  c1037     -1
    B347(43)  c1042     -1
    B347(43)  c1047     -1
    B347(43)  c1231     1
    B347(43)  c1232     1
    B347(43)  c1247     1
    B347(43)  c1248     1
    B347(43)  c1263     1
    B347(43)  c1264     1
    B347(43)  c1279     1
    B347(43)  c1280     1
    B347(43)  t_definition_root_I_ac_3  1
    B347(43)  t_definition_root_I_nn_3  1
    B347(43)  t_definition_root_I_pp_3  1
    B347(43)  t_definition_root_I_ac_6  1
    B347(43)  t_definition_root_I_nn_6  1
    B347(43)  t_definition_non_root_I_nn_6  -1
    B347(43)  t_definition_root_I_pp_6  1
    B347(43)  t_definition_root_I_ac_9  1
    B347(43)  t_definition_root_I_nn_9  1
    B347(43)  t_definition_root_I_pp_9  1
    B348(49)  c653      1
    B348(49)  c656      1
    B348(49)  c657      1
    B348(49)  c658      1
    B348(49)  c659      1
    B348(49)  c660      1
    B348(49)  c661      1
    B348(49)  c664      3
    B348(49)  c670      -3
    B348(49)  c699      -1
    B348(49)  c700      -1
    B348(49)  c726      -1
    B348(49)  c728      -1
    B348(49)  c736      -1
    B348(49)  c738      -1
    B348(49)  c848      -4
    B348(49)  c850      -1
    B348(49)  c932      -1
    B348(49)  c937      -1
    B348(49)  c942      -1
    B348(49)  c947      -1
    B348(49)  c952      -1
    B348(49)  c957      -1
    B348(49)  c962      -1
    B348(49)  c967      -1
    B348(49)  c972      -1
    B348(49)  c977      -1
    B348(49)  c982      -1
    B348(49)  c987      -1
    B348(49)  c992      -1
    B348(49)  c997      -1
    B348(49)  c1002     -1
    B348(49)  c1007     -1
    B348(49)  c1012     -1
    B348(49)  c1017     -1
    B348(49)  c1022     -1
    B348(49)  c1027     -1
    B348(49)  c1032     -1
    B348(49)  c1037     -1
    B348(49)  c1042     -1
    B348(49)  c1047     -1
    B348(49)  c1231     1
    B348(49)  c1232     1
    B348(49)  c1247     1
    B348(49)  c1248     1
    B348(49)  c1263     1
    B348(49)  c1264     1
    B348(49)  c1279     1
    B348(49)  c1280     1
    B348(49)  t_definition_root_I_ac_3  1
    B348(49)  t_definition_root_I_nn_3  1
    B348(49)  t_definition_root_I_pp_3  1
    B348(49)  t_definition_root_I_ac_6  1
    B348(49)  t_definition_non_root_I_ac_6  -1
    B348(49)  t_definition_root_I_nn_6  1
    B348(49)  t_definition_root_I_pp_6  1
    B348(49)  t_definition_root_I_ac_9  1
    B348(49)  t_definition_root_I_nn_9  1
    B348(49)  t_definition_root_I_pp_9  1
    B349(3)   c651      -1
    B349(3)   c665      1
    B349(3)   c697      1
    B350(3)   c652      -1
    B350(3)   c666      1
    B350(3)   c697      1
    B351(3)   c653      -1
    B351(3)   c667      1
    B351(3)   c697      1
    B352(3)   c654      -1
    B352(3)   c671      -1
    B352(3)   c698      1
    B353(3)   c655      -1
    B353(3)   c672      -1
    B353(3)   c698      1
    B354(3)   c656      -1
    B354(3)   c673      -1
    B354(3)   c698      1
    B355(43)  c674      1
    B355(43)  c677      1
    B355(43)  c683      1
    B355(43)  c685      3
    B355(43)  c691      -3
    B355(43)  c699      -1
    B355(43)  c700      -1
    B355(43)  c741      -1
    B355(43)  c743      -1
    B355(43)  c883      -2
    B355(43)  c885      -1
    B355(43)  c932      -1
    B355(43)  c937      -1
    B355(43)  c942      -1
    B355(43)  c947      -1
    B355(43)  c952      -1
    B355(43)  c957      -1
    B355(43)  c962      -1
    B355(43)  c967      -1
    B355(43)  c972      -1
    B355(43)  c977      -1
    B355(43)  c982      -1
    B355(43)  c987      -1
    B355(43)  c992      -1
    B355(43)  c997      -1
    B355(43)  c1002     -1
    B355(43)  c1007     -1
    B355(43)  c1012     -1
    B355(43)  c1017     -1
    B355(43)  c1022     -1
    B355(43)  c1027     -1
    B355(43)  c1032     -1
    B355(43)  c1037     -1
    B355(43)  c1042     -1
    B355(43)  c1047     -1
    B355(43)  c1231     1
    B355(43)  c1232     1
    B355(43)  c1247     1
    B355(43)  c1248     1
    B355(43)  c1263     1
    B355(43)  c1264     1
    B355(43)  c1279     1
    B355(43)  c1280     1
    B355(43)  t_definition_root_I_ac_3  1
    B355(43)  t_definition_root_I_nn_3  1
    B355(43)  t_definition_root_I_pp_3  1
    B355(43)  t_definition_root_I_ac_6  1
    B355(43)  t_definition_root_I_nn_6  1
    B355(43)  t_definition_root_I_pp_6  1
    B355(43)  t_definition_root_I_ac_9  1
    B355(43)  t_definition_root_I_nn_9  1
    B355(43)  t_definition_root_I_pp_9  1
    B355(43)  t_definition_non_root_I_pp_9  -1
    B356(43)  c675      1
    B356(43)  c678      1
    B356(43)  c684      1
    B356(43)  c686      3
    B356(43)  c692      -3
    B356(43)  c699      -1
    B356(43)  c700      -1
    B356(43)  c751      -1
    B356(43)  c753      -1
    B356(43)  c896      -2
    B356(43)  c898      -1
    B356(43)  c932      -1
    B356(43)  c937      -1
    B356(43)  c942      -1
    B356(43)  c947      -1
    B356(43)  c952      -1
    B356(43)  c957      -1
    B356(43)  c962      -1
    B356(43)  c967      -1
    B356(43)  c972      -1
    B356(43)  c977      -1
    B356(43)  c982      -1
    B356(43)  c987      -1
    B356(43)  c992      -1
    B356(43)  c997      -1
    B356(43)  c1002     -1
    B356(43)  c1007     -1
    B356(43)  c1012     -1
    B356(43)  c1017     -1
    B356(43)  c1022     -1
    B356(43)  c1027     -1
    B356(43)  c1032     -1
    B356(43)  c1037     -1
    B356(43)  c1042     -1
    B356(43)  c1047     -1
    B356(43)  c1231     1
    B356(43)  c1232     1
    B356(43)  c1247     1
    B356(43)  c1248     1
    B356(43)  c1263     1
    B356(43)  c1264     1
    B356(43)  c1279     1
    B356(43)  c1280     1
    B356(43)  t_definition_root_I_ac_3  1
    B356(43)  t_definition_root_I_nn_3  1
    B356(43)  t_definition_root_I_pp_3  1
    B356(43)  t_definition_root_I_ac_6  1
    B356(43)  t_definition_root_I_nn_6  1
    B356(43)  t_definition_root_I_pp_6  1
    B356(43)  t_definition_root_I_ac_9  1
    B356(43)  t_definition_root_I_nn_9  1
    B356(43)  t_definition_non_root_I_nn_9  -1
    B356(43)  t_definition_root_I_pp_9  1
    B357(49)  c676      1
    B357(49)  c679      1
    B357(49)  c680      1
    B357(49)  c681      1
    B357(49)  c682      1
    B357(49)  c683      1
    B357(49)  c684      1
    B357(49)  c687      3
    B357(49)  c693      -3
    B357(49)  c699      -1
    B357(49)  c700      -1
    B357(49)  c746      -1
    B357(49)  c748      -1
    B357(49)  c756      -1
    B357(49)  c758      -1
    B357(49)  c909      -4
    B357(49)  c911      -1
    B357(49)  c932      -1
    B357(49)  c937      -1
    B357(49)  c942      -1
    B357(49)  c947      -1
    B357(49)  c952      -1
    B357(49)  c957      -1
    B357(49)  c962      -1
    B357(49)  c967      -1
    B357(49)  c972      -1
    B357(49)  c977      -1
    B357(49)  c982      -1
    B357(49)  c987      -1
    B357(49)  c992      -1
    B357(49)  c997      -1
    B357(49)  c1002     -1
    B357(49)  c1007     -1
    B357(49)  c1012     -1
    B357(49)  c1017     -1
    B357(49)  c1022     -1
    B357(49)  c1027     -1
    B357(49)  c1032     -1
    B357(49)  c1037     -1
    B357(49)  c1042     -1
    B357(49)  c1047     -1
    B357(49)  c1231     1
    B357(49)  c1232     1
    B357(49)  c1247     1
    B357(49)  c1248     1
    B357(49)  c1263     1
    B357(49)  c1264     1
    B357(49)  c1279     1
    B357(49)  c1280     1
    B357(49)  t_definition_root_I_ac_3  1
    B357(49)  t_definition_root_I_nn_3  1
    B357(49)  t_definition_root_I_pp_3  1
    B357(49)  t_definition_root_I_ac_6  1
    B357(49)  t_definition_root_I_nn_6  1
    B357(49)  t_definition_root_I_pp_6  1
    B357(49)  t_definition_root_I_ac_9  1
    B357(49)  t_definition_non_root_I_ac_9  -1
    B357(49)  t_definition_root_I_nn_9  1
    B357(49)  t_definition_root_I_pp_9  1
    B358(3)   c674      -1
    B358(3)   c688      2
    B358(3)   c697      1
    B359(3)   c675      -1
    B359(3)   c689      2
    B359(3)   c697      1
    B360(3)   c676      -1
    B360(3)   c690      2
    B360(3)   c697      1
    B361(2)   c677      -1
    B361(2)   c698      1
    B362(2)   c678      -1
    B362(2)   c698      1
    B363(2)   c679      -1
    B363(2)   c698      1
    B364(44)  c699      3
    B364(44)  c700      1
    B364(44)  c702      -1
    B364(44)  c703      -1
    B364(44)  c707      -1
    B364(44)  c708      -1
    B364(44)  c712      -1
    B364(44)  c713      -1
    B364(44)  c717      -1
    B364(44)  c718      -1
    B364(44)  c722      -1
    B364(44)  c723      -1
    B364(44)  c727      -1
    B364(44)  c728      -1
    B364(44)  c732      -1
    B364(44)  c733      -1
    B364(44)  c737      -1
    B364(44)  c738      -1
    B364(44)  c742      -1
    B364(44)  c743      -1
    B364(44)  c747      -1
    B364(44)  c748      -1
    B364(44)  c752      -1
    B364(44)  c753      -1
    B364(44)  c757      -1
    B364(44)  c758      -1
    B364(44)  c762      -2
    B364(44)  c763      -1
    B364(44)  c775      -2
    B364(44)  c776      -1
    B364(44)  c788      -4
    B364(44)  c789      -1
    B364(44)  c811      -2
    B364(44)  c812      -1
    B364(44)  c830      -2
    B364(44)  c831      -1
    B364(44)  c849      -4
    B364(44)  c850      -1
    B364(44)  c884      -2
    B364(44)  c885      -1
    B364(44)  c897      -2
    B364(44)  c898      -1
    B364(44)  c910      -4
    B364(44)  c911      -1
    B365(5)   c701      1
    B365(5)   c702      1
    B365(5)   c703      1
    B365(5)   c704      -2
    B365(5)   c705      2
    I366(4)   c704      1
    I366(4)   c705      1
    I366(4)   c1120     1
    I366(4)   c1122     -1
    B367(5)   c706      1
    B367(5)   c707      1
    B367(5)   c708      1
    B367(5)   c709      -2
    B367(5)   c710      2
    I368(4)   c709      1
    I368(4)   c710      1
    I368(4)   c1116     1
    I368(4)   c1122     -1
    B369(5)   c711      1
    B369(5)   c712      1
    B369(5)   c713      1
    B369(5)   c714      -2
    B369(5)   c715      2
    I370(4)   c714      1
    I370(4)   c715      1
    I370(4)   c1117     1
    I370(4)   c1119     -1
    B371(5)   c716      1
    B371(5)   c717      1
    B371(5)   c718      1
    B371(5)   c719      -2
    B371(5)   c720      2
    I372(4)   c719      1
    I372(4)   c720      1
    I372(4)   c1116     1
    I372(4)   c1119     -1
    B373(5)   c721      1
    B373(5)   c722      1
    B373(5)   c723      1
    B373(5)   c724      -2
    B373(5)   c725      2
    I374(4)   c724      1
    I374(4)   c725      1
    I374(4)   c1133     1
    I374(4)   c1135     -1
    B375(5)   c726      1
    B375(5)   c727      1
    B375(5)   c728      1
    B375(5)   c729      -2
    B375(5)   c730      2
    I376(4)   c729      1
    I376(4)   c730      1
    I376(4)   c1129     1
    I376(4)   c1135     -1
    B377(5)   c731      1
    B377(5)   c732      1
    B377(5)   c733      1
    B377(5)   c734      -2
    B377(5)   c735      2
    I378(4)   c734      1
    I378(4)   c735      1
    I378(4)   c1130     1
    I378(4)   c1132     -1
    B379(5)   c736      1
    B379(5)   c737      1
    B379(5)   c738      1
    B379(5)   c739      -2
    B379(5)   c740      2
    I380(4)   c739      1
    I380(4)   c740      1
    I380(4)   c1129     1
    I380(4)   c1132     -1
    B381(5)   c741      1
    B381(5)   c742      1
    B381(5)   c743      1
    B381(5)   c744      -2
    B381(5)   c745      2
    I382(4)   c744      1
    I382(4)   c745      1
    I382(4)   c1146     1
    I382(4)   c1148     -1
    B383(5)   c746      1
    B383(5)   c747      1
    B383(5)   c748      1
    B383(5)   c749      -2
    B383(5)   c750      2
    I384(4)   c749      1
    I384(4)   c750      1
    I384(4)   c1142     1
    I384(4)   c1148     -1
    B385(5)   c751      1
    B385(5)   c752      1
    B385(5)   c753      1
    B385(5)   c754      -2
    B385(5)   c755      2
    I386(4)   c754      1
    I386(4)   c755      1
    I386(4)   c1143     1
    I386(4)   c1145     -1
    B387(5)   c756      1
    B387(5)   c757      1
    B387(5)   c758      1
    B387(5)   c759      -2
    B387(5)   c760      2
    I388(4)   c759      1
    I388(4)   c760      1
    I388(4)   c1142     1
    I388(4)   c1145     -1
    B389(5)   c761      1
    B389(5)   c762      1
    B389(5)   c763      1
    B389(5)   c764      -1
    B389(5)   c765      -1
    B390(5)   c761      1
    B390(5)   c762      1
    B390(5)   c763      1
    B390(5)   c769      -1
    B390(5)   c770      -1
    B391(5)   c764      1
    B391(5)   c765      1
    B391(5)   c766      1
    B391(5)   c767      1
    B391(5)   c768      1
    B392(5)   c769      1
    B392(5)   c770      1
    B392(5)   c771      1
    B392(5)   c772      1
    B392(5)   c773      1
    B393(5)   c774      1
    B393(5)   c775      1
    B393(5)   c776      1
    B393(5)   c777      -1
    B393(5)   c778      -1
    B394(5)   c774      1
    B394(5)   c775      1
    B394(5)   c776      1
    B394(5)   c782      -1
    B394(5)   c783      -1
    B395(5)   c777      1
    B395(5)   c778      1
    B395(5)   c779      1
    B395(5)   c780      1
    B395(5)   c781      1
    B396(5)   c782      1
    B396(5)   c783      1
    B396(5)   c784      1
    B396(5)   c785      1
    B396(5)   c786      1
    B397(5)   c787      1
    B397(5)   c788      1
    B397(5)   c789      1
    B397(5)   c790      -1
    B397(5)   c791      -1
    B398(5)   c787      1
    B398(5)   c788      1
    B398(5)   c789      1
    B398(5)   c795      -1
    B398(5)   c796      -1
    B399(5)   c787      1
    B399(5)   c788      1
    B399(5)   c789      1
    B399(5)   c800      -1
    B399(5)   c801      -1
    B400(5)   c787      1
    B400(5)   c788      1
    B400(5)   c789      1
    B400(5)   c805      -1
    B400(5)   c806      -1
    B401(5)   c790      1
    B401(5)   c791      1
    B401(5)   c792      1
    B401(5)   c793      1
    B401(5)   c794      1
    B402(5)   c795      1
    B402(5)   c796      1
    B402(5)   c797      1
    B402(5)   c798      1
    B402(5)   c799      1
    B403(5)   c800      1
    B403(5)   c801      1
    B403(5)   c802      1
    B403(5)   c803      1
    B403(5)   c804      1
    B404(5)   c805      1
    B404(5)   c806      1
    B404(5)   c807      1
    B404(5)   c808      1
    B404(5)   c809      1
    B405(5)   c810      1
    B405(5)   c811      1
    B405(5)   c812      1
    B405(5)   c813      -1
    B405(5)   c814      -1
    B406(5)   c810      1
    B406(5)   c811      1
    B406(5)   c812      1
    B406(5)   c821      -1
    B406(5)   c822      -1
    B407(5)   c813      1
    B407(5)   c814      1
    B407(5)   c815      1
    B407(5)   c816      1
    B407(5)   c817      1
    B408(5)   c813      1
    B408(5)   c814      1
    B408(5)   c818      1
    B408(5)   c819      1
    B408(5)   c820      1
    B409(5)   c821      1
    B409(5)   c822      1
    B409(5)   c823      1
    B409(5)   c824      1
    B409(5)   c825      1
    B410(5)   c821      1
    B410(5)   c822      1
    B410(5)   c826      1
    B410(5)   c827      1
    B410(5)   c828      1
    B411(5)   c829      1
    B411(5)   c830      1
    B411(5)   c831      1
    B411(5)   c832      -1
    B411(5)   c833      -1
    B412(5)   c829      1
    B412(5)   c830      1
    B412(5)   c831      1
    B412(5)   c840      -1
    B412(5)   c841      -1
    B413(5)   c832      1
    B413(5)   c833      1
    B413(5)   c834      1
    B413(5)   c835      1
    B413(5)   c836      1
    B414(5)   c832      1
    B414(5)   c833      1
    B414(5)   c837      1
    B414(5)   c838      1
    B414(5)   c839      1
    B415(5)   c840      1
    B415(5)   c841      1
    B415(5)   c842      1
    B415(5)   c843      1
    B415(5)   c844      1
    B416(5)   c840      1
    B416(5)   c841      1
    B416(5)   c845      1
    B416(5)   c846      1
    B416(5)   c847      1
    B417(7)   c848      1
    B417(7)   c849      1
    B417(7)   c850      1
    B417(7)   c851      -1
    B417(7)   c852      -1
    B417(7)   c1296     -1
    B417(7)   c1298     -1
    B418(5)   c848      1
    B418(5)   c849      1
    B418(5)   c850      1
    B418(5)   c859      -1
    B418(5)   c860      -1
    B419(5)   c848      1
    B419(5)   c849      1
    B419(5)   c850      1
    B419(5)   c867      -1
    B419(5)   c868      -1
    B420(7)   c848      1
    B420(7)   c849      1
    B420(7)   c850      1
    B420(7)   c875      -1
    B420(7)   c876      -1
    B420(7)   c1299     -1
    B420(7)   c1301     -1
    B421(5)   c851      1
    B421(5)   c852      1
    B421(5)   c853      1
    B421(5)   c854      1
    B421(5)   c855      1
    B422(5)   c851      1
    B422(5)   c852      1
    B422(5)   c856      1
    B422(5)   c857      1
    B422(5)   c858      1
    B423(5)   c859      1
    B423(5)   c860      1
    B423(5)   c861      1
    B423(5)   c862      1
    B423(5)   c863      1
    B424(5)   c859      1
    B424(5)   c860      1
    B424(5)   c864      1
    B424(5)   c865      1
    B424(5)   c866      1
    B425(5)   c867      1
    B425(5)   c868      1
    B425(5)   c869      1
    B425(5)   c870      1
    B425(5)   c871      1
    B426(5)   c867      1
    B426(5)   c868      1
    B426(5)   c872      1
    B426(5)   c873      1
    B426(5)   c874      1
    B427(5)   c875      1
    B427(5)   c876      1
    B427(5)   c877      1
    B427(5)   c878      1
    B427(5)   c879      1
    B428(5)   c875      1
    B428(5)   c876      1
    B428(5)   c880      1
    B428(5)   c881      1
    B428(5)   c882      1
    B429(5)   c883      1
    B429(5)   c884      1
    B429(5)   c885      1
    B429(5)   c886      -1
    B429(5)   c887      -1
    B430(5)   c883      1
    B430(5)   c884      1
    B430(5)   c885      1
    B430(5)   c891      -1
    B430(5)   c892      -1
    B431(5)   c886      1
    B431(5)   c887      1
    B431(5)   c888      1
    B431(5)   c889      1
    B431(5)   c890      1
    B432(5)   c891      1
    B432(5)   c892      1
    B432(5)   c893      1
    B432(5)   c894      1
    B432(5)   c895      1
    B433(5)   c896      1
    B433(5)   c897      1
    B433(5)   c898      1
    B433(5)   c899      -1
    B433(5)   c900      -1
    B434(5)   c896      1
    B434(5)   c897      1
    B434(5)   c898      1
    B434(5)   c904      -1
    B434(5)   c905      -1
    B435(5)   c899      1
    B435(5)   c900      1
    B435(5)   c901      1
    B435(5)   c902      1
    B435(5)   c903      1
    B436(5)   c904      1
    B436(5)   c905      1
    B436(5)   c906      1
    B436(5)   c907      1
    B436(5)   c908      1
    B437(7)   c909      1
    B437(7)   c910      1
    B437(7)   c911      1
    B437(7)   c912      -1
    B437(7)   c913      -1
    B437(7)   c1306     -1
    B437(7)   c1307     -1
    B438(5)   c909      1
    B438(5)   c910      1
    B438(5)   c911      1
    B438(5)   c917      -1
    B438(5)   c918      -1
    B439(5)   c909      1
    B439(5)   c910      1
    B439(5)   c911      1
    B439(5)   c922      -1
    B439(5)   c923      -1
    B440(7)   c909      1
    B440(7)   c910      1
    B440(7)   c911      1
    B440(7)   c927      -1
    B440(7)   c928      -1
    B440(7)   c1303     -1
    B440(7)   c1304     -1
    B441(5)   c912      1
    B441(5)   c913      1
    B441(5)   c914      1
    B441(5)   c915      1
    B441(5)   c916      1
    B442(5)   c917      1
    B442(5)   c918      1
    B442(5)   c919      1
    B442(5)   c920      1
    B442(5)   c921      1
    B443(5)   c922      1
    B443(5)   c923      1
    B443(5)   c924      1
    B443(5)   c925      1
    B443(5)   c926      1
    B444(5)   c927      1
    B444(5)   c928      1
    B444(5)   c929      1
    B444(5)   c930      1
    B444(5)   c931      1
    B445(10)  c932      1
    B445(10)  c933      3
    B445(10)  c934      3
    B445(10)  c935      -2
    B445(10)  c936      2
    B445(10)  c1056     -1
    B445(10)  c1057     -1
    B445(10)  c1058     1
    B445(10)  c1151     1
    B445(10)  c1154     1
    I446(4)   c935      1
    I446(4)   c936      1
    I446(4)   c1122     -1
    I446(4)   c1128     1
    B447(10)  c937      1
    B447(10)  c938      3
    B447(10)  c939      3
    B447(10)  c940      -2
    B447(10)  c941      2
    B447(10)  c1059     -1
    B447(10)  c1060     -1
    B447(10)  c1061     1
    B447(10)  c1152     1
    B447(10)  c1154     1
    I448(4)   c940      1
    I448(4)   c941      1
    I448(4)   c1122     -1
    I448(4)   c1128     1
    B449(10)  c942      1
    B449(10)  c943      3
    B449(10)  c944      3
    B449(10)  c945      -2
    B449(10)  c946      2
    B449(10)  c1062     -1
    B449(10)  c1063     -1
    B449(10)  c1064     1
    B449(10)  c1155     1
    B449(10)  c1158     1
    I450(4)   c945      1
    I450(4)   c946      1
    I450(4)   c1119     -1
    I450(4)   c1126     1
    B451(10)  c947      1
    B451(10)  c948      3
    B451(10)  c949      3
    B451(10)  c950      -2
    B451(10)  c951      2
    B451(10)  c1065     -1
    B451(10)  c1066     -1
    B451(10)  c1067     1
    B451(10)  c1156     1
    B451(10)  c1158     1
    I452(4)   c950      1
    I452(4)   c951      1
    I452(4)   c1119     -1
    I452(4)   c1126     1
    B453(10)  c952      1
    B453(10)  c953      3
    B453(10)  c954      3
    B453(10)  c955      -2
    B453(10)  c956      2
    B453(10)  c1068     -1
    B453(10)  c1069     -1
    B453(10)  c1070     1
    B453(10)  c1159     1
    B453(10)  c1162     1
    I454(4)   c955      1
    I454(4)   c956      1
    I454(4)   c1128     -1
    I454(4)   c1135     1
    B455(10)  c957      1
    B455(10)  c958      3
    B455(10)  c959      3
    B455(10)  c960      -2
    B455(10)  c961      2
    B455(10)  c1071     -1
    B455(10)  c1072     -1
    B455(10)  c1073     1
    B455(10)  c1160     1
    B455(10)  c1162     1
    I456(4)   c960      1
    I456(4)   c961      1
    I456(4)   c1128     -1
    I456(4)   c1135     1
    B457(10)  c962      1
    B457(10)  c963      3
    B457(10)  c964      3
    B457(10)  c965      -2
    B457(10)  c966      2
    B457(10)  c1074     -1
    B457(10)  c1075     -1
    B457(10)  c1076     1
    B457(10)  c1163     1
    B457(10)  c1166     1
    I458(4)   c965      1
    I458(4)   c966      1
    I458(4)   c1126     -1
    I458(4)   c1132     1
    B459(10)  c967      1
    B459(10)  c968      3
    B459(10)  c969      3
    B459(10)  c970      -2
    B459(10)  c971      2
    B459(10)  c1077     -1
    B459(10)  c1078     -1
    B459(10)  c1079     1
    B459(10)  c1164     1
    B459(10)  c1166     1
    I460(4)   c970      1
    I460(4)   c971      1
    I460(4)   c1126     -1
    I460(4)   c1132     1
    B461(10)  c972      1
    B461(10)  c973      3
    B461(10)  c974      3
    B461(10)  c975      -2
    B461(10)  c976      2
    B461(10)  c1080     -1
    B461(10)  c1081     -1
    B461(10)  c1082     1
    B461(10)  c1167     1
    B461(10)  c1170     1
    I462(4)   c975      1
    I462(4)   c976      1
    I462(4)   c1135     -1
    I462(4)   c1141     1
    B463(10)  c977      1
    B463(10)  c978      3
    B463(10)  c979      3
    B463(10)  c980      -2
    B463(10)  c981      2
    B463(10)  c1083     -1
    B463(10)  c1084     -1
    B463(10)  c1085     1
    B463(10)  c1168     1
    B463(10)  c1170     1
    I464(4)   c980      1
    I464(4)   c981      1
    I464(4)   c1135     -1
    I464(4)   c1141     1
    B465(10)  c982      1
    B465(10)  c983      3
    B465(10)  c984      3
    B465(10)  c985      -2
    B465(10)  c986      2
    B465(10)  c1086     -1
    B465(10)  c1087     -1
    B465(10)  c1088     1
    B465(10)  c1171     1
    B465(10)  c1174     1
    I466(4)   c985      1
    I466(4)   c986      1
    I466(4)   c1132     -1
    I466(4)   c1139     1
    B467(10)  c987      1
    B467(10)  c988      3
    B467(10)  c989      3
    B467(10)  c990      -2
    B467(10)  c991      2
    B467(10)  c1089     -1
    B467(10)  c1090     -1
    B467(10)  c1091     1
    B467(10)  c1172     1
    B467(10)  c1174     1
    I468(4)   c990      1
    I468(4)   c991      1
    I468(4)   c1132     -1
    I468(4)   c1139     1
    B469(10)  c992      1
    B469(10)  c993      3
    B469(10)  c994      3
    B469(10)  c995      -2
    B469(10)  c996      2
    B469(10)  c1092     -1
    B469(10)  c1093     -1
    B469(10)  c1094     1
    B469(10)  c1175     1
    B469(10)  c1178     1
    I470(4)   c995      1
    I470(4)   c996      1
    I470(4)   c1141     -1
    I470(4)   c1148     1
    B471(10)  c997      1
    B471(10)  c998      3
    B471(10)  c999      3
    B471(10)  c1000     -2
    B471(10)  c1001     2
    B471(10)  c1095     -1
    B471(10)  c1096     -1
    B471(10)  c1097     1
    B471(10)  c1176     1
    B471(10)  c1178     1
    I472(4)   c1000     1
    I472(4)   c1001     1
    I472(4)   c1141     -1
    I472(4)   c1148     1
    B473(10)  c1002     1
    B473(10)  c1003     3
    B473(10)  c1004     3
    B473(10)  c1005     -2
    B473(10)  c1006     2
    B473(10)  c1098     -1
    B473(10)  c1099     -1
    B473(10)  c1100     1
    B473(10)  c1179     1
    B473(10)  c1182     1
    I474(4)   c1005     1
    I474(4)   c1006     1
    I474(4)   c1139     -1
    I474(4)   c1145     1
    B475(10)  c1007     1
    B475(10)  c1008     3
    B475(10)  c1009     3
    B475(10)  c1010     -2
    B475(10)  c1011     2
    B475(10)  c1101     -1
    B475(10)  c1102     -1
    B475(10)  c1103     1
    B475(10)  c1180     1
    B475(10)  c1182     1
    I476(4)   c1010     1
    I476(4)   c1011     1
    I476(4)   c1139     -1
    I476(4)   c1145     1
    B477(6)   c1012     1
    B477(6)   c1013     3
    B477(6)   c1014     3
    B477(6)   c1015     -2
    B477(6)   c1016     2
    B477(6)   c1052     1
    I478(4)   c1015     1
    I478(4)   c1016     1
    I478(4)   c1124     -1
    I478(4)   c1128     1
    B479(6)   c1017     1
    B479(6)   c1018     3
    B479(6)   c1019     3
    B479(6)   c1020     -2
    B479(6)   c1021     2
    B479(6)   c1053     1
    I480(4)   c1020     1
    I480(4)   c1021     1
    I480(4)   c1124     -1
    I480(4)   c1126     1
    B481(8)   c1022     1
    B481(8)   c1023     3
    B481(8)   c1024     3
    B481(8)   c1025     -2
    B481(8)   c1026     2
    B481(8)   c1104     -1
    B481(8)   c1105     -1
    B481(8)   c1106     -1
    I482(4)   c1025     1
    I482(4)   c1026     1
    I482(4)   c1124     -1
    I482(4)   c1137     1
    B483(8)   c1027     1
    B483(8)   c1028     3
    B483(8)   c1029     3
    B483(8)   c1030     -2
    B483(8)   c1031     2
    B483(8)   c1107     -1
    B483(8)   c1108     -1
    B483(8)   c1109     -1
    I484(4)   c1030     1
    I484(4)   c1031     1
    I484(4)   c1124     -1
    I484(4)   c1137     1
    B485(8)   c1032     1
    B485(8)   c1033     3
    B485(8)   c1034     3
    B485(8)   c1035     -2
    B485(8)   c1036     2
    B485(8)   c1110     -1
    B485(8)   c1111     -1
    B485(8)   c1112     -1
    I486(4)   c1035     1
    I486(4)   c1036     1
    I486(4)   c1124     -1
    I486(4)   c1137     1
    B487(8)   c1037     1
    B487(8)   c1038     3
    B487(8)   c1039     3
    B487(8)   c1040     -2
    B487(8)   c1041     2
    B487(8)   c1113     -1
    B487(8)   c1114     -1
    B487(8)   c1115     -1
    I488(4)   c1040     1
    I488(4)   c1041     1
    I488(4)   c1124     -1
    I488(4)   c1137     1
    B489(6)   c1042     1
    B489(6)   c1043     3
    B489(6)   c1044     3
    B489(6)   c1045     -2
    B489(6)   c1046     2
    B489(6)   c1054     1
    I490(4)   c1045     1
    I490(4)   c1046     1
    I490(4)   c1137     -1
    I490(4)   c1141     1
    B491(6)   c1047     1
    B491(6)   c1048     3
    B491(6)   c1049     3
    B491(6)   c1050     -2
    B491(6)   c1051     2
    B491(6)   c1055     1
    I492(4)   c1050     1
    I492(4)   c1051     1
    I492(4)   c1137     -1
    I492(4)   c1139     1
    I493(1)   c1116     -1
    I493(1)   t_definition_root_I_ac_3  1
    I493(1)   t_definition_non_root_I_ac_3  1
    I494(1)   c1117     -1
    I494(1)   t_definition_root_I_nn_3  1
    I494(1)   t_definition_non_root_I_nn_3  1
    I495(2)   c1118     1
    I495(2)   c1119     -1
    I496(1)   c1120     -1
    I496(1)   t_definition_root_I_pp_3  1
    I496(1)   t_definition_non_root_I_pp_3  1
    I497(2)   c1121     1
    I497(2)   c1122     -1
    I498(2)   c1123     1
    I498(2)   c1124     -1
    I499(2)   c1125     1
    I499(2)   c1126     -1
    I500(2)   c1127     1
    I500(2)   c1128     -1
    I501(1)   c1129     -1
    I501(1)   t_definition_root_I_ac_6  1
    I501(1)   t_definition_non_root_I_ac_6  1
    I502(1)   c1130     -1
    I502(1)   t_definition_root_I_nn_6  1
    I502(1)   t_definition_non_root_I_nn_6  1
    I503(2)   c1131     1
    I503(2)   c1132     -1
    I504(1)   c1133     -1
    I504(1)   t_definition_root_I_pp_6  1
    I504(1)   t_definition_non_root_I_pp_6  1
    I505(2)   c1134     1
    I505(2)   c1135     -1
    I506(2)   c1136     1
    I506(2)   c1137     -1
    I507(2)   c1138     1
    I507(2)   c1139     -1
    I508(2)   c1140     1
    I508(2)   c1141     -1
    I509(1)   c1142     -1
    I509(1)   t_definition_root_I_ac_9  1
    I509(1)   t_definition_non_root_I_ac_9  1
    I510(1)   c1143     -1
    I510(1)   t_definition_root_I_nn_9  1
    I510(1)   t_definition_non_root_I_nn_9  1
    I511(2)   c1144     1
    I511(2)   c1145     -1
    I512(1)   c1146     -1
    I512(1)   t_definition_root_I_pp_9  1
    I512(1)   t_definition_non_root_I_pp_9  1
    I513(2)   c1147     1
    I513(2)   c1148     -1
    B514(0)   OBJ       0
    I515(1)   OBJ       -1
    I515(1)   c1295     1
    B516(5)   c1233     1
    B516(5)   c1234     1
    B516(5)   c1237     20
    B516(5)   c1238     1
    B516(5)   c1295     -1
    B517(4)   c1231     20
    B517(4)   c1232     20
    B517(4)   c1233     -1
    B517(4)   c1238     -1
    B518(3)   c1235     1
    B518(3)   c1236     1
    B518(3)   c1238     -1
    B519(5)   c1241     1
    B519(5)   c1242     1
    B519(5)   c1245     20
    B519(5)   c1246     1
    B519(5)   c1295     -1
    B520(4)   c1239     20
    B520(4)   c1240     20
    B520(4)   c1241     -1
    B520(4)   c1246     -1
    B521(3)   c1243     1
    B521(3)   c1244     1
    B521(3)   c1246     -1
    B522(5)   c1249     1
    B522(5)   c1250     1
    B522(5)   c1253     20
    B522(5)   c1254     1
    B522(5)   c1295     -1
    B523(4)   c1247     20
    B523(4)   c1248     20
    B523(4)   c1249     -1
    B523(4)   c1254     -1
    B524(3)   c1251     1
    B524(3)   c1252     1
    B524(3)   c1254     -1
    B525(5)   c1257     1
    B525(5)   c1258     1
    B525(5)   c1261     20
    B525(5)   c1262     1
    B525(5)   c1295     -1
    B526(4)   c1255     20
    B526(4)   c1256     20
    B526(4)   c1257     -1
    B526(4)   c1262     -1
    B527(3)   c1259     1
    B527(3)   c1260     1
    B527(3)   c1262     -1
    B528(5)   c1265     1
    B528(5)   c1266     1
    B528(5)   c1269     20
    B528(5)   c1270     1
    B528(5)   c1295     -1
    B529(4)   c1263     20
    B529(4)   c1264     20
    B529(4)   c1265     -1
    B529(4)   c1270     -1
    B530(3)   c1267     1
    B530(3)   c1268     1
    B530(3)   c1270     -1
    B531(5)   c1273     1
    B531(5)   c1274     1
    B531(5)   c1277     20
    B531(5)   c1278     1
    B531(5)   c1295     -1
    B532(4)   c1271     20
    B532(4)   c1272     20
    B532(4)   c1273     -1
    B532(4)   c1278     -1
    B533(3)   c1275     1
    B533(3)   c1276     1
    B533(3)   c1278     -1
    B534(5)   c1281     1
    B534(5)   c1282     1
    B534(5)   c1285     20
    B534(5)   c1286     1
    B534(5)   c1295     -1
    B535(4)   c1279     20
    B535(4)   c1280     20
    B535(4)   c1281     -1
    B535(4)   c1286     -1
    B536(3)   c1283     1
    B536(3)   c1284     1
    B536(3)   c1286     -1
    B537(5)   c1289     1
    B537(5)   c1290     1
    B537(5)   c1293     20
    B537(5)   c1294     1
    B537(5)   c1295     -1
    B538(4)   c1287     20
    B538(4)   c1288     20
    B538(4)   c1289     -1
    B538(4)   c1294     -1
    B539(3)   c1291     1
    B539(3)   c1292     1
    B539(3)   c1294     -1
    B540(3)   OBJ       -1
    B540(3)   c1296     1
    B540(3)   c1297     1
    B540(3)   c1298     1
    B541(3)   OBJ       -1
    B541(3)   c1299     1
    B541(3)   c1300     1
    B541(3)   c1301     1
    B542(3)   OBJ       -1
    B542(3)   c1302     1
    B542(3)   c1303     1
    B542(3)   c1304     1
    B543(3)   OBJ       -1
    B543(3)   c1305     1
    B543(3)   c1306     1
    B543(3)   c1307     1
    B544(1)   OBJ       100
    B544(1)   c1308     1
    B545(1)   OBJ       100
    B545(1)   c1309     1
    B546(1)   OBJ       100
    B546(1)   c1310     1
    B547(1)   OBJ       100
    B547(1)   c1311     1
    MARKER    'MARKER'                 'INTEND'
RHS
    RHS1      c0        1
    RHS1      c7        1
    RHS1      c13       1
    RHS1      c14       1
    RHS1      c15       2
    RHS1      c16       2
    RHS1      c17       2
    RHS1      c18       2
    RHS1      c19       2
    RHS1      c20       2
    RHS1      c21       1
    RHS1      c22       1
    RHS1      c23       1
    RHS1      c24       1
    RHS1      c25       2
    RHS1      c26       2
    RHS1      c27       2
    RHS1      c28       2
    RHS1      c29       2
    RHS1      c30       2
    RHS1      c31       1
    RHS1      c32       1
    RHS1      c33       1
    RHS1      c34       1
    RHS1      c35       1
    RHS1      c36       1
    RHS1      c37       1
    RHS1      c38       1
    RHS1      c45       2
    RHS1      c50       2
    RHS1      c56       -1
    RHS1      c61       -3
    RHS1      c64       -3
    RHS1      c66       1
    RHS1      c67       -3
    RHS1      c70       -3
    RHS1      c74       -3
    RHS1      c77       -3
    RHS1      c79       1
    RHS1      c80       -3
    RHS1      c83       -3
    RHS1      c97       -1
    RHS1      c104      -1
    RHS1      c105      3
    RHS1      c106      7
    RHS1      c113      -1
    RHS1      c118      3
    RHS1      c119      3
    RHS1      c120      3
    RHS1      c124      -3
    RHS1      c125      -3
    RHS1      c126      -3
    RHS1      c127      -2
    RHS1      c128      -2
    RHS1      c129      -2
    RHS1      c136      -1
    RHS1      c141      4
    RHS1      c142      4
    RHS1      c143      4
    RHS1      c147      -2
    RHS1      c148      -2
    RHS1      c149      -2
    RHS1      c150      -2
    RHS1      c151      -2
    RHS1      c152      -2
    RHS1      c159      -1
    RHS1      c164      5
    RHS1      c165      5
    RHS1      c166      5
    RHS1      c170      -1
    RHS1      c171      -1
    RHS1      c172      -1
    RHS1      c173      -2
    RHS1      c174      -2
    RHS1      c175      -2
    RHS1      c176      1
    RHS1      c177      1
    RHS1      c182      -1
    RHS1      c187      -1
    RHS1      c192      -1
    RHS1      c197      -1
    RHS1      c202      -1
    RHS1      c207      -1
    RHS1      c212      -1
    RHS1      c217      -1
    RHS1      c222      -1
    RHS1      c227      -1
    RHS1      c232      -1
    RHS1      c237      -1
    RHS1      c242      -1
    RHS1      c255      -1
    RHS1      c268      -1
    RHS1      c291      -1
    RHS1      c310      -1
    RHS1      c329      -1
    RHS1      c364      -1
    RHS1      c377      -1
    RHS1      c390      -1
    RHS1      c411      -1
    RHS1      c412      4
    RHS1      c413      2
    RHS1      c416      -1
    RHS1      c417      4
    RHS1      c418      2
    RHS1      c421      -1
    RHS1      c422      4
    RHS1      c423      2
    RHS1      c426      -1
    RHS1      c427      4
    RHS1      c428      2
    RHS1      c431      -1
    RHS1      c432      4
    RHS1      c433      2
    RHS1      c436      -1
    RHS1      c437      4
    RHS1      c438      2
    RHS1      c441      -1
    RHS1      c442      4
    RHS1      c443      2
    RHS1      c446      -1
    RHS1      c447      4
    RHS1      c448      2
    RHS1      c451      -1
    RHS1      c452      5
    RHS1      c453      1
    RHS1      c456      -1
    RHS1      c457      5
    RHS1      c458      1
    RHS1      c461      -1
    RHS1      c462      5
    RHS1      c463      1
    RHS1      c466      -1
    RHS1      c467      5
    RHS1      c468      1
    RHS1      c471      -1
    RHS1      c472      5
    RHS1      c473      1
    RHS1      c476      -1
    RHS1      c477      5
    RHS1      c478      1
    RHS1      c481      -1
    RHS1      c482      5
    RHS1      c483      1
    RHS1      c486      -1
    RHS1      c487      5
    RHS1      c488      1
    RHS1      c491      -1
    RHS1      c492      4
    RHS1      c493      2
    RHS1      c496      -1
    RHS1      c497      4
    RHS1      c498      2
    RHS1      c501      -1
    RHS1      c502      5
    RHS1      c503      1
    RHS1      c506      -1
    RHS1      c507      5
    RHS1      c508      1
    RHS1      c511      -1
    RHS1      c512      5
    RHS1      c513      1
    RHS1      c516      -1
    RHS1      c517      5
    RHS1      c518      1
    RHS1      c521      -1
    RHS1      c522      5
    RHS1      c523      1
    RHS1      c526      -1
    RHS1      c527      5
    RHS1      c528      1
    RHS1      c634      -1
    RHS1      c639      3
    RHS1      c640      3
    RHS1      c641      3
    RHS1      c645      -3
    RHS1      c646      -3
    RHS1      c647      -3
    RHS1      c648      -2
    RHS1      c649      -2
    RHS1      c650      -2
    RHS1      c657      -1
    RHS1      c662      4
    RHS1      c663      4
    RHS1      c664      4
    RHS1      c668      -2
    RHS1      c669      -2
    RHS1      c670      -2
    RHS1      c671      -2
    RHS1      c672      -2
    RHS1      c673      -2
    RHS1      c680      -1
    RHS1      c685      5
    RHS1      c686      5
    RHS1      c687      5
    RHS1      c691      -1
    RHS1      c692      -1
    RHS1      c693      -1
    RHS1      c694      -2
    RHS1      c695      -2
    RHS1      c696      -2
    RHS1      c697      1
    RHS1      c698      1
    RHS1      c703      -1
    RHS1      c708      -1
    RHS1      c713      -1
    RHS1      c718      -1
    RHS1      c723      -1
    RHS1      c728      -1
    RHS1      c733      -1
    RHS1      c738      -1
    RHS1      c743      -1
    RHS1      c748      -1
    RHS1      c753      -1
    RHS1      c758      -1
    RHS1      c763      -1
    RHS1      c776      -1
    RHS1      c789      -1
    RHS1      c812      -1
    RHS1      c831      -1
    RHS1      c850      -1
    RHS1      c885      -1
    RHS1      c898      -1
    RHS1      c911      -1
    RHS1      c932      -1
    RHS1      c933      4
    RHS1      c934      2
    RHS1      c937      -1
    RHS1      c938      4
    RHS1      c939      2
    RHS1      c942      -1
    RHS1      c943      4
    RHS1      c944      2
    RHS1      c947      -1
    RHS1      c948      4
    RHS1      c949      2
    RHS1      c952      -1
    RHS1      c953      4
    RHS1      c954      2
    RHS1      c957      -1
    RHS1      c958      4
    RHS1      c959      2
    RHS1      c962      -1
    RHS1      c963      4
    RHS1      c964      2
    RHS1      c967      -1
    RHS1      c968      4
    RHS1      c969      2
    RHS1      c972      -1
    RHS1      c973      5
    RHS1      c974      1
    RHS1      c977      -1
    RHS1      c978      5
    RHS1      c979      1
    RHS1      c982      -1
    RHS1      c983      5
    RHS1      c984      1
    RHS1      c987      -1
    RHS1      c988      5
    RHS1      c989      1
    RHS1      c992      -1
    RHS1      c993      5
    RHS1      c994      1
    RHS1      c997      -1
    RHS1      c998      5
    RHS1      c999      1
    RHS1      c1002     -1
    RHS1      c1003     5
    RHS1      c1004     1
    RHS1      c1007     -1
    RHS1      c1008     5
    RHS1      c1009     1
    RHS1      c1012     -1
    RHS1      c1013     4
    RHS1      c1014     2
    RHS1      c1017     -1
    RHS1      c1018     4
    RHS1      c1019     2
    RHS1      c1022     -1
    RHS1      c1023     5
    RHS1      c1024     1
    RHS1      c1027     -1
    RHS1      c1028     5
    RHS1      c1029     1
    RHS1      c1032     -1
    RHS1      c1033     5
    RHS1      c1034     1
    RHS1      c1037     -1
    RHS1      c1038     5
    RHS1      c1039     1
    RHS1      c1042     -1
    RHS1      c1043     5
    RHS1      c1044     1
    RHS1      c1047     -1
    RHS1      c1048     5
    RHS1      c1049     1
    RHS1      c1149     1
    RHS1      c1150     1
    RHS1      c1151     1
    RHS1      c1152     1
    RHS1      c1153     1
    RHS1      c1154     1
    RHS1      c1155     1
    RHS1      c1156     1
    RHS1      c1157     1
    RHS1      c1158     1
    RHS1      c1159     1
    RHS1      c1160     1
    RHS1      c1161     1
    RHS1      c1162     1
    RHS1      c1163     1
    RHS1      c1164     1
    RHS1      c1165     1
    RHS1      c1166     1
    RHS1      c1167     1
    RHS1      c1168     1
    RHS1      c1169     1
    RHS1      c1170     1
    RHS1      c1171     1
    RHS1      c1172     1
    RHS1      c1173     1
    RHS1      c1174     1
    RHS1      c1175     1
    RHS1      c1176     1
    RHS1      c1177     1
    RHS1      c1178     1
    RHS1      c1179     1
    RHS1      c1180     1
    RHS1      c1181     1
    RHS1      c1182     1
    RHS1      c1184     1
    RHS1      c1186     1
    RHS1      c1188     1
    RHS1      c1190     1
    RHS1      c1192     1
    RHS1      c1194     1
    RHS1      c1196     1
    RHS1      c1198     1
    RHS1      c1200     1
    RHS1      c1202     1
    RHS1      c1204     1
    RHS1      c1206     1
    RHS1      c1208     1
    RHS1      c1210     1
    RHS1      c1212     1
    RHS1      c1214     1
    RHS1      c1216     1
    RHS1      c1218     1
    RHS1      c1220     1
    RHS1      c1222     1
    RHS1      c1224     1
    RHS1      c1226     1
    RHS1      c1228     1
    RHS1      c1230     1
    RHS1      c1231     21
    RHS1      c1232     2
    RHS1      c1237     20
    RHS1      c1238     -1
    RHS1      c1239     21
    RHS1      c1240     2
    RHS1      c1245     20
    RHS1      c1246     -1
    RHS1      c1247     21
    RHS1      c1248     2
    RHS1      c1253     20
    RHS1      c1254     -1
    RHS1      c1255     21
    RHS1      c1256     2
    RHS1      c1261     20
    RHS1      c1262     -1
    RHS1      c1263     21
    RHS1      c1264     2
    RHS1      c1269     20
    RHS1      c1270     -1
    RHS1      c1271     21
    RHS1      c1272     2
    RHS1      c1277     20
    RHS1      c1278     -1
    RHS1      c1279     21
    RHS1      c1280     2
    RHS1      c1285     20
    RHS1      c1286     -1
    RHS1      c1287     21
    RHS1      c1288     2
    RHS1      c1293     20
    RHS1      c1294     -1
    RHS1      c1298     -1
    RHS1      c1301     -1
    RHS1      c1304     -1
    RHS1      c1307     -1
    RHS1      c1314     4
    RHS1      c1317     4
    RHS1      c1320     4
    RHS1      t_definition_root_ZN_ac_3  1
    RHS1      t_definition_non_root_ZN_ac_3  0
    RHS1      t_definition_root_ZN_nn_3  1
    RHS1      t_definition_non_root_ZN_nn_3  0
    RHS1      t_definition_root_ZN_pp_3  1
    RHS1      t_definition_non_root_ZN_pp_3  0
    RHS1      t_definition_root_ZN_ac_6  1
    RHS1      t_definition_non_root_ZN_ac_6  0
    RHS1      t_definition_root_ZN_nn_6  1
    RHS1      t_definition_non_root_ZN_nn_6  0
    RHS1      t_definition_root_ZN_pp_6  1
    RHS1      t_definition_non_root_ZN_pp_6  0
    RHS1      t_definition_root_ZN_ac_9  1
    RHS1      t_definition_non_root_ZN_ac_9  0
    RHS1      t_definition_root_ZN_nn_9  1
    RHS1      t_definition_non_root_ZN_nn_9  0
    RHS1      t_definition_root_ZN_pp_9  1
    RHS1      t_definition_non_root_ZN_pp_9  0
    RHS1      t_definition_root_I_ac_3  1
    RHS1      t_definition_non_root_I_ac_3  0
    RHS1      t_definition_root_I_nn_3  1
    RHS1      t_definition_non_root_I_nn_3  0
    RHS1      t_definition_root_I_pp_3  1
    RHS1      t_definition_non_root_I_pp_3  0
    RHS1      t_definition_root_I_ac_6  1
    RHS1      t_definition_non_root_I_ac_6  0
    RHS1      t_definition_root_I_nn_6  1
    RHS1      t_definition_non_root_I_nn_6  0
    RHS1      t_definition_root_I_pp_6  1
    RHS1      t_definition_non_root_I_pp_6  0
    RHS1      t_definition_root_I_ac_9  1
    RHS1      t_definition_non_root_I_ac_9  0
    RHS1      t_definition_root_I_nn_9  1
    RHS1      t_definition_non_root_I_nn_9  0
    RHS1      t_definition_root_I_pp_9  1
    RHS1      t_definition_non_root_I_pp_9  0
BOUNDS
 BV BND1      B0(6)   
 BV BND1      B1(6)   
 BV BND1      B2(14)  
 BV BND1      B3(2)   
 BV BND1      B4(10)  
 BV BND1      B5(4)   
 BV BND1      B6(4)   
 BV BND1      B7(22)  
 BV BND1      B8(9)   
 BV BND1      B9(1)   
 BV BND1      B10(14) 
 BV BND1      B11(2)  
 BV BND1      B12(10) 
 BV BND1      B13(4)  
 BV BND1      B14(6)  
 BV BND1      B15(6)  
 BV BND1      B16(13) 
 BV BND1      B17(2)  
 BV BND1      B18(10) 
 BV BND1      B19(4)  
 BV BND1      B20(4)  
 BV BND1      B21(22) 
 BV BND1      B22(9)  
 BV BND1      B23(1)  
 BV BND1      B24(13) 
 BV BND1      B25(2)  
 BV BND1      B26(10) 
 BV BND1      B27(4)  
 BV BND1      B28(6)  
 BV BND1      B29(4)  
 BV BND1      B30(5)  
 BV BND1      B31(3)  
 BV BND1      B32(6)  
 BV BND1      B33(6)  
 BV BND1      B34(6)  
 BV BND1      B35(5)  
 BV BND1      B36(6)  
 BV BND1      B37(5)  
 BV BND1      B38(6)  
 BV BND1      B39(5)  
 BV BND1      B40(6)  
 BV BND1      B41(5)  
 BV BND1      B42(5)  
 BV BND1      B43(5)  
 BV BND1      B44(4)  
 BV BND1      B45(4)  
 BV BND1      B46(4)  
 BV BND1      B47(4)  
 BV BND1      B48(4)  
 BV BND1      B49(4)  
 LI BND1      I50(2)    0
 LI BND1      I51(1)    0
 LI BND1      I52(3)    0
 LI BND1      I53(3)    0
 LI BND1      I54(3)    0
 LI BND1      I55(3)    0
 LI BND1      I56(3)    0
 LI BND1      I57(3)    0
 LI BND1      I58(3)    0
 LI BND1      I59(3)    0
 LI BND1      I60(2)    0
 LI BND1      I61(1)    0
 LI BND1      I62(3)    0
 LI BND1      I63(3)    0
 LI BND1      I64(3)    0
 LI BND1      I65(3)    0
 LI BND1      I66(3)    0
 LI BND1      I67(3)    0
 LI BND1      I68(3)    0
 LI BND1      I69(3)    0
 LI BND1      I70(2)    0
 LI BND1      I71(1)    0
 LI BND1      I72(3)    0
 LI BND1      I73(3)    0
 LI BND1      I74(3)    0
 LI BND1      I75(3)    0
 LI BND1      I76(3)    0
 LI BND1      I77(3)    0
 LI BND1      I78(3)    0
 LI BND1      I79(3)    0
 BV BND1      B80(5)  
 BV BND1      B81(5)  
 BV BND1      B82(5)  
 BV BND1      B83(5)  
 BV BND1      B84(1)  
 BV BND1      B85(1)  
 BV BND1      B86(1)  
 BV BND1      B87(1)  
 BV BND1      B88(5)  
 BV BND1      B89(5)  
 BV BND1      B90(5)  
 BV BND1      B91(5)  
 BV BND1      B92(1)  
 BV BND1      B93(1)  
 BV BND1      B94(1)  
 BV BND1      B95(1)  
 BV BND1      B96(1)  
 BV BND1      B97(1)  
 BV BND1      B98(1)  
 BV BND1      B99(1)  
 BV BND1      B100(1) 
 BV BND1      B101(1) 
 BV BND1      B102(1) 
 BV BND1      B103(1) 
 BV BND1      B104(18)
 BV BND1      B105(18)
 BV BND1      B106(18)
 BV BND1      B107(18)
 BV BND1      B108(18)
 BV BND1      B109(18)
 BV BND1      B110(18)
 BV BND1      B111(18)
 BV BND1      B112(18)
 BV BND1      B113(18)
 BV BND1      B114(18)
 BV BND1      B115(18)
 BV BND1      B116(3) 
 BV BND1      B117(3) 
 BV BND1      B118(2) 
 BV BND1      B119(2) 
 BV BND1      B120(2) 
 BV BND1      B121(2) 
 BV BND1      B122(2) 
 BV BND1      B123(2) 
 BV BND1      B124(2) 
 BV BND1      B125(2) 
 BV BND1      B126(2) 
 BV BND1      B127(2) 
 BV BND1      B128(2) 
 BV BND1      B129(2) 
 UP BND1      I130(42)  2
 UP BND1      I131(42)  2
 BV BND1      B132(43)
 BV BND1      B133(43)
 BV BND1      B134(49)
 BV BND1      B135(2) 
 BV BND1      B136(2) 
 BV BND1      B137(2) 
 BV BND1      B138(3) 
 BV BND1      B139(3) 
 BV BND1      B140(3) 
 BV BND1      B141(43)
 BV BND1      B142(43)
 BV BND1      B143(49)
 BV BND1      B144(3) 
 BV BND1      B145(3) 
 BV BND1      B146(3) 
 BV BND1      B147(3) 
 BV BND1      B148(3) 
 BV BND1      B149(3) 
 BV BND1      B150(43)
 BV BND1      B151(43)
 BV BND1      B152(49)
 BV BND1      B153(3) 
 BV BND1      B154(3) 
 BV BND1      B155(3) 
 BV BND1      B156(2) 
 BV BND1      B157(2) 
 BV BND1      B158(2) 
 BV BND1      B159(44)
 BV BND1      B160(5) 
 LO BND1      I161(4)   -1
 UP BND1      I161(4)   1
 BV BND1      B162(5) 
 LO BND1      I163(4)   -1
 UP BND1      I163(4)   1
 BV BND1      B164(5) 
 LO BND1      I165(4)   -1
 UP BND1      I165(4)   1
 BV BND1      B166(5) 
 LO BND1      I167(4)   -1
 UP BND1      I167(4)   1
 BV BND1      B168(5) 
 LO BND1      I169(4)   -1
 UP BND1      I169(4)   1
 BV BND1      B170(5) 
 LO BND1      I171(4)   -1
 UP BND1      I171(4)   1
 BV BND1      B172(5) 
 LO BND1      I173(4)   -1
 UP BND1      I173(4)   1
 BV BND1      B174(5) 
 LO BND1      I175(4)   -1
 UP BND1      I175(4)   1
 BV BND1      B176(5) 
 LO BND1      I177(4)   -1
 UP BND1      I177(4)   1
 BV BND1      B178(5) 
 LO BND1      I179(4)   -1
 UP BND1      I179(4)   1
 BV BND1      B180(5) 
 LO BND1      I181(4)   -1
 UP BND1      I181(4)   1
 BV BND1      B182(5) 
 LO BND1      I183(4)   -1
 UP BND1      I183(4)   1
 BV BND1      B184(5) 
 BV BND1      B185(5) 
 BV BND1      B186(5) 
 BV BND1      B187(5) 
 BV BND1      B188(5) 
 BV BND1      B189(5) 
 BV BND1      B190(5) 
 BV BND1      B191(5) 
 BV BND1      B192(5) 
 BV BND1      B193(5) 
 BV BND1      B194(5) 
 BV BND1      B195(5) 
 BV BND1      B196(5) 
 BV BND1      B197(5) 
 BV BND1      B198(5) 
 BV BND1      B199(5) 
 BV BND1      B200(5) 
 BV BND1      B201(5) 
 BV BND1      B202(5) 
 BV BND1      B203(5) 
 BV BND1      B204(5) 
 BV BND1      B205(5) 
 BV BND1      B206(5) 
 BV BND1      B207(5) 
 BV BND1      B208(5) 
 BV BND1      B209(5) 
 BV BND1      B210(5) 
 BV BND1      B211(5) 
 BV BND1      B212(7) 
 BV BND1      B213(5) 
 BV BND1      B214(5) 
 BV BND1      B215(7) 
 BV BND1      B216(5) 
 BV BND1      B217(5) 
 BV BND1      B218(5) 
 BV BND1      B219(5) 
 BV BND1      B220(5) 
 BV BND1      B221(5) 
 BV BND1      B222(5) 
 BV BND1      B223(5) 
 BV BND1      B224(5) 
 BV BND1      B225(5) 
 BV BND1      B226(5) 
 BV BND1      B227(5) 
 BV BND1      B228(5) 
 BV BND1      B229(5) 
 BV BND1      B230(5) 
 BV BND1      B231(5) 
 BV BND1      B232(7) 
 BV BND1      B233(5) 
 BV BND1      B234(5) 
 BV BND1      B235(7) 
 BV BND1      B236(5) 
 BV BND1      B237(5) 
 BV BND1      B238(5) 
 BV BND1      B239(5) 
 BV BND1      B240(10)
 LO BND1      I241(4)   -1
 UP BND1      I241(4)   1
 BV BND1      B242(10)
 LO BND1      I243(4)   -1
 UP BND1      I243(4)   1
 BV BND1      B244(10)
 LO BND1      I245(4)   -1
 UP BND1      I245(4)   1
 BV BND1      B246(10)
 LO BND1      I247(4)   -1
 UP BND1      I247(4)   1
 BV BND1      B248(10)
 LO BND1      I249(4)   -1
 UP BND1      I249(4)   1
 BV BND1      B250(10)
 LO BND1      I251(4)   -1
 UP BND1      I251(4)   1
 BV BND1      B252(10)
 LO BND1      I253(4)   -1
 UP BND1      I253(4)   1
 BV BND1      B254(10)
 LO BND1      I255(4)   -1
 UP BND1      I255(4)   1
 BV BND1      B256(10)
 LO BND1      I257(4)   -1
 UP BND1      I257(4)   1
 BV BND1      B258(10)
 LO BND1      I259(4)   -1
 UP BND1      I259(4)   1
 BV BND1      B260(10)
 LO BND1      I261(4)   -1
 UP BND1      I261(4)   1
 BV BND1      B262(10)
 LO BND1      I263(4)   -1
 UP BND1      I263(4)   1
 BV BND1      B264(10)
 LO BND1      I265(4)   -1
 UP BND1      I265(4)   1
 BV BND1      B266(10)
 LO BND1      I267(4)   -1
 UP BND1      I267(4)   1
 BV BND1      B268(10)
 LO BND1      I269(4)   -1
 UP BND1      I269(4)   1
 BV BND1      B270(10)
 LO BND1      I271(4)   -1
 UP BND1      I271(4)   1
 BV BND1      B272(6) 
 LO BND1      I273(4)   -1
 UP BND1      I273(4)   1
 BV BND1      B274(6) 
 LO BND1      I275(4)   -1
 UP BND1      I275(4)   1
 BV BND1      B276(8) 
 LO BND1      I277(4)   -1
 UP BND1      I277(4)   1
 BV BND1      B278(8) 
 LO BND1      I279(4)   -1
 UP BND1      I279(4)   1
 BV BND1      B280(8) 
 LO BND1      I281(4)   -1
 UP BND1      I281(4)   1
 BV BND1      B282(8) 
 LO BND1      I283(4)   -1
 UP BND1      I283(4)   1
 BV BND1      B284(6) 
 LO BND1      I285(4)   -1
 UP BND1      I285(4)   1
 BV BND1      B286(6) 
 LO BND1      I287(4)   -1
 UP BND1      I287(4)   1
 LO BND1      I288(1)   -1
 UP BND1      I288(1)   1
 LO BND1      I289(1)   -1
 UP BND1      I289(1)   1
 LO BND1      I290(2)   -1
 UP BND1      I290(2)   1
 LO BND1      I291(1)   -1
 UP BND1      I291(1)   1
 LO BND1      I292(2)   -1
 UP BND1      I292(2)   1
 LO BND1      I293(2)   -1
 UP BND1      I293(2)   1
 LO BND1      I294(2)   -1
 UP BND1      I294(2)   1
 LO BND1      I295(2)   -1
 UP BND1      I295(2)   1
 LO BND1      I296(1)   -1
 UP BND1      I296(1)   1
 LO BND1      I297(1)   -1
 UP BND1      I297(1)   1
 LO BND1      I298(2)   -1
 UP BND1      I298(2)   1
 LO BND1      I299(1)   -1
 UP BND1      I299(1)   1
 LO BND1      I300(2)   -1
 UP BND1      I300(2)   1
 LO BND1      I301(2)   -1
 UP BND1      I301(2)   1
 LO BND1      I302(2)   -1
 UP BND1      I302(2)   1
 LO BND1      I303(2)   -1
 UP BND1      I303(2)   1
 LO BND1      I304(1)   -1
 UP BND1      I304(1)   1
 LO BND1      I305(1)   -1
 UP BND1      I305(1)   1
 LO BND1      I306(2)   -1
 UP BND1      I306(2)   1
 LO BND1      I307(1)   -1
 UP BND1      I307(1)   1
 LO BND1      I308(2)   -1
 UP BND1      I308(2)   1
 BV BND1      B309(18)
 BV BND1      B310(18)
 BV BND1      B311(18)
 BV BND1      B312(18)
 BV BND1      B313(18)
 BV BND1      B314(18)
 BV BND1      B315(18)
 BV BND1      B316(18)
 BV BND1      B317(18)
 BV BND1      B318(18)
 BV BND1      B319(18)
 BV BND1      B320(18)
 BV BND1      B321(3) 
 BV BND1      B322(3) 
 BV BND1      B323(2) 
 BV BND1      B324(2) 
 BV BND1      B325(2) 
 BV BND1      B326(2) 
 BV BND1      B327(2) 
 BV BND1      B328(2) 
 BV BND1      B329(2) 
 BV BND1      B330(2) 
 BV BND1      B331(2) 
 BV BND1      B332(2) 
 BV BND1      B333(2) 
 BV BND1      B334(2) 
 UP BND1      I335(42)  2
 UP BND1      I336(42)  2
 BV BND1      B337(43)
 BV BND1      B338(43)
 BV BND1      B339(49)
 BV BND1      B340(2) 
 BV BND1      B341(2) 
 BV BND1      B342(2) 
 BV BND1      B343(3) 
 BV BND1      B344(3) 
 BV BND1      B345(3) 
 BV BND1      B346(43)
 BV BND1      B347(43)
 BV BND1      B348(49)
 BV BND1      B349(3) 
 BV BND1      B350(3) 
 BV BND1      B351(3) 
 BV BND1      B352(3) 
 BV BND1      B353(3) 
 BV BND1      B354(3) 
 BV BND1      B355(43)
 BV BND1      B356(43)
 BV BND1      B357(49)
 BV BND1      B358(3) 
 BV BND1      B359(3) 
 BV BND1      B360(3) 
 BV BND1      B361(2) 
 BV BND1      B362(2) 
 BV BND1      B363(2) 
 BV BND1      B364(44)
 BV BND1      B365(5) 
 LO BND1      I366(4)   -2
 UP BND1      I366(4)   2
 BV BND1      B367(5) 
 LO BND1      I368(4)   -2
 UP BND1      I368(4)   2
 BV BND1      B369(5) 
 LO BND1      I370(4)   -2
 UP BND1      I370(4)   2
 BV BND1      B371(5) 
 LO BND1      I372(4)   -2
 UP BND1      I372(4)   2
 BV BND1      B373(5) 
 LO BND1      I374(4)   -2
 UP BND1      I374(4)   2
 BV BND1      B375(5) 
 LO BND1      I376(4)   -2
 UP BND1      I376(4)   2
 BV BND1      B377(5) 
 LO BND1      I378(4)   -2
 UP BND1      I378(4)   2
 BV BND1      B379(5) 
 LO BND1      I380(4)   -2
 UP BND1      I380(4)   2
 BV BND1      B381(5) 
 LO BND1      I382(4)   -2
 UP BND1      I382(4)   2
 BV BND1      B383(5) 
 LO BND1      I384(4)   -2
 UP BND1      I384(4)   2
 BV BND1      B385(5) 
 LO BND1      I386(4)   -2
 UP BND1      I386(4)   2
 BV BND1      B387(5) 
 LO BND1      I388(4)   -2
 UP BND1      I388(4)   2
 BV BND1      B389(5) 
 BV BND1      B390(5) 
 BV BND1      B391(5) 
 BV BND1      B392(5) 
 BV BND1      B393(5) 
 BV BND1      B394(5) 
 BV BND1      B395(5) 
 BV BND1      B396(5) 
 BV BND1      B397(5) 
 BV BND1      B398(5) 
 BV BND1      B399(5) 
 BV BND1      B400(5) 
 BV BND1      B401(5) 
 BV BND1      B402(5) 
 BV BND1      B403(5) 
 BV BND1      B404(5) 
 BV BND1      B405(5) 
 BV BND1      B406(5) 
 BV BND1      B407(5) 
 BV BND1      B408(5) 
 BV BND1      B409(5) 
 BV BND1      B410(5) 
 BV BND1      B411(5) 
 BV BND1      B412(5) 
 BV BND1      B413(5) 
 BV BND1      B414(5) 
 BV BND1      B415(5) 
 BV BND1      B416(5) 
 BV BND1      B417(7) 
 BV BND1      B418(5) 
 BV BND1      B419(5) 
 BV BND1      B420(7) 
 BV BND1      B421(5) 
 BV BND1      B422(5) 
 BV BND1      B423(5) 
 BV BND1      B424(5) 
 BV BND1      B425(5) 
 BV BND1      B426(5) 
 BV BND1      B427(5) 
 BV BND1      B428(5) 
 BV BND1      B429(5) 
 BV BND1      B430(5) 
 BV BND1      B431(5) 
 BV BND1      B432(5) 
 BV BND1      B433(5) 
 BV BND1      B434(5) 
 BV BND1      B435(5) 
 BV BND1      B436(5) 
 BV BND1      B437(7) 
 BV BND1      B438(5) 
 BV BND1      B439(5) 
 BV BND1      B440(7) 
 BV BND1      B441(5) 
 BV BND1      B442(5) 
 BV BND1      B443(5) 
 BV BND1      B444(5) 
 BV BND1      B445(10)
 LO BND1      I446(4)   -2
 UP BND1      I446(4)   2
 BV BND1      B447(10)
 LO BND1      I448(4)   -2
 UP BND1      I448(4)   2
 BV BND1      B449(10)
 LO BND1      I450(4)   -2
 UP BND1      I450(4)   2
 BV BND1      B451(10)
 LO BND1      I452(4)   -2
 UP BND1      I452(4)   2
 BV BND1      B453(10)
 LO BND1      I454(4)   -2
 UP BND1      I454(4)   2
 BV BND1      B455(10)
 LO BND1      I456(4)   -2
 UP BND1      I456(4)   2
 BV BND1      B457(10)
 LO BND1      I458(4)   -2
 UP BND1      I458(4)   2
 BV BND1      B459(10)
 LO BND1      I460(4)   -2
 UP BND1      I460(4)   2
 BV BND1      B461(10)
 LO BND1      I462(4)   -2
 UP BND1      I462(4)   2
 BV BND1      B463(10)
 LO BND1      I464(4)   -2
 UP BND1      I464(4)   2
 BV BND1      B465(10)
 LO BND1      I466(4)   -2
 UP BND1      I466(4)   2
 BV BND1      B467(10)
 LO BND1      I468(4)   -2
 UP BND1      I468(4)   2
 BV BND1      B469(10)
 LO BND1      I470(4)   -2
 UP BND1      I470(4)   2
 BV BND1      B471(10)
 LO BND1      I472(4)   -2
 UP BND1      I472(4)   2
 BV BND1      B473(10)
 LO BND1      I474(4)   -2
 UP BND1      I474(4)   2
 BV BND1      B475(10)
 LO BND1      I476(4)   -2
 UP BND1      I476(4)   2
 BV BND1      B477(6) 
 LO BND1      I478(4)   -2
 UP BND1      I478(4)   2
 BV BND1      B479(6) 
 LO BND1      I480(4)   -2
 UP BND1      I480(4)   2
 BV BND1      B481(8) 
 LO BND1      I482(4)   -2
 UP BND1      I482(4)   2
 BV BND1      B483(8) 
 LO BND1      I484(4)   -2
 UP BND1      I484(4)   2
 BV BND1      B485(8) 
 LO BND1      I486(4)   -2
 UP BND1      I486(4)   2
 BV BND1      B487(8) 
 LO BND1      I488(4)   -2
 UP BND1      I488(4)   2
 BV BND1      B489(6) 
 LO BND1      I490(4)   -2
 UP BND1      I490(4)   2
 BV BND1      B491(6) 
 LO BND1      I492(4)   -2
 UP BND1      I492(4)   2
 LO BND1      I493(1)   -2
 UP BND1      I493(1)   1
 LO BND1      I494(1)   -2
 UP BND1      I494(1)   1
 LO BND1      I495(2)   -2
 UP BND1      I495(2)   1
 LO BND1      I496(1)   -2
 UP BND1      I496(1)   1
 LO BND1      I497(2)   -2
 UP BND1      I497(2)   1
 LO BND1      I498(2)   -2
 UP BND1      I498(2)   1
 LO BND1      I499(2)   -2
 UP BND1      I499(2)   1
 LO BND1      I500(2)   -2
 UP BND1      I500(2)   1
 LO BND1      I501(1)   -2
 UP BND1      I501(1)   1
 LO BND1      I502(1)   -2
 UP BND1      I502(1)   1
 LO BND1      I503(2)   -2
 UP BND1      I503(2)   1
 LO BND1      I504(1)   -2
 UP BND1      I504(1)   1
 LO BND1      I505(2)   -2
 UP BND1      I505(2)   1
 LO BND1      I506(2)   -2
 UP BND1      I506(2)   1
 LO BND1      I507(2)   -2
 UP BND1      I507(2)   1
 LO BND1      I508(2)   -2
 UP BND1      I508(2)   1
 LO BND1      I509(1)   -2
 UP BND1      I509(1)   1
 LO BND1      I510(1)   -2
 UP BND1      I510(1)   1
 LO BND1      I511(2)   -2
 UP BND1      I511(2)   1
 LO BND1      I512(1)   -2
 UP BND1      I512(1)   1
 LO BND1      I513(2)   -2
 UP BND1      I513(2)   1
 BV BND1      B514(0) 
 LI BND1      I515(1)   0
 BV BND1      B516(5) 
 BV BND1      B517(4) 
 BV BND1      B518(3) 
 BV BND1      B519(5) 
 BV BND1      B520(4) 
 BV BND1      B521(3) 
 BV BND1      B522(5) 
 BV BND1      B523(4) 
 BV BND1      B524(3) 
 BV BND1      B525(5) 
 BV BND1      B526(4) 
 BV BND1      B527(3) 
 BV BND1      B528(5) 
 BV BND1      B529(4) 
 BV BND1      B530(3) 
 BV BND1      B531(5) 
 BV BND1      B532(4) 
 BV BND1      B533(3) 
 BV BND1      B534(5) 
 BV BND1      B535(4) 
 BV BND1      B536(3) 
 BV BND1      B537(5) 
 BV BND1      B538(4) 
 BV BND1      B539(3) 
 BV BND1      B540(3) 
 BV BND1      B541(3) 
 BV BND1      B542(3) 
 BV BND1      B543(3) 
 BV BND1      B544(1) 
 BV BND1      B545(1) 
 BV BND1      B546(1) 
 BV BND1      B547(1) 
INDICATORS
 IF t_definition_root_ZN_ac_3  B137(2)   1
 IF t_definition_non_root_ZN_ac_3  B137(2)   0
 IF t_definition_root_ZN_nn_3  B136(2)   1
 IF t_definition_non_root_ZN_nn_3  B136(2)   0
 IF t_definition_root_ZN_pp_3  B135(2)   1
 IF t_definition_non_root_ZN_pp_3  B135(2)   0
 IF t_definition_root_ZN_ac_6  B146(3)   1
 IF t_definition_non_root_ZN_ac_6  B146(3)   0
 IF t_definition_root_ZN_nn_6  B145(3)   1
 IF t_definition_non_root_ZN_nn_6  B145(3)   0
 IF t_definition_root_ZN_pp_6  B144(3)   1
 IF t_definition_non_root_ZN_pp_6  B144(3)   0
 IF t_definition_root_ZN_ac_9  B155(3)   1
 IF t_definition_non_root_ZN_ac_9  B155(3)   0
 IF t_definition_root_ZN_nn_9  B154(3)   1
 IF t_definition_non_root_ZN_nn_9  B154(3)   0
 IF t_definition_root_ZN_pp_9  B153(3)   1
 IF t_definition_non_root_ZN_pp_9  B153(3)   0
 IF t_definition_root_I_ac_3  B342(2)   1
 IF t_definition_non_root_I_ac_3  B342(2)   0
 IF t_definition_root_I_nn_3  B341(2)   1
 IF t_definition_non_root_I_nn_3  B341(2)   0
 IF t_definition_root_I_pp_3  B340(2)   1
 IF t_definition_non_root_I_pp_3  B340(2)   0
 IF t_definition_root_I_ac_6  B351(3)   1
 IF t_definition_non_root_I_ac_6  B351(3)   0
 IF t_definition_root_I_nn_6  B350(3)   1
 IF t_definition_non_root_I_nn_6  B350(3)   0
 IF t_definition_root_I_pp_6  B349(3)   1
 IF t_definition_non_root_I_pp_6  B349(3)   0
 IF t_definition_root_I_ac_9  B360(3)   1
 IF t_definition_non_root_I_ac_9  B360(3)   0
 IF t_definition_root_I_nn_9  B359(3)   1
 IF t_definition_non_root_I_nn_9  B359(3)   0
 IF t_definition_root_I_pp_9  B358(3)   1
 IF t_definition_non_root_I_pp_9  B358(3)   0
ENDATA
